%chk=structure_150.chk
%NProcShared=8
# b3lyp/6-31G* Opt=(ModRedundant) geom=nocrowd Freq Test

Phi Psi fixed scan

0   1
    H    7.1958000000       -1.3670000000       -1.2309000000     
    C    6.1334000000       -1.5529000000       -1.4156000000     
    H    6.0066000000       -2.6345000000       -1.5283000000     
    H    5.8410000000       -1.0614000000       -2.3485000000     
    C    5.3357000000       -1.0891000000       -0.2052000000     
    O    5.5717000000       -1.5023000000        0.9274000000     
    N    4.3505000000       -0.1854000000       -0.4639000000     
    H    4.0940000000        0.0802000000       -1.4081000000     
    C    3.4396000000        0.2739000000        0.5649000000     
    H    3.1730000000       -0.5840000000        1.1963000000     
    C    4.0772000000        1.3583000000        1.4554000000     
    H    4.3425000000        2.2362000000        0.8570000000     
    H    3.3954000000        1.6749000000        2.2526000000     
    H    4.9822000000        0.9501000000        1.9119000000     
    C    2.1807000000        0.7993000000       -0.1556000000     
    O    2.1936000000        1.0302000000       -1.3599000000     
    N    1.1259000000        1.0332000000        0.6788000000     
    H    1.2119000000        0.6315000000        1.6033000000     
    C   -0.2393000000        1.3819000000        0.2990000000     
    H   -0.6546000000        1.9276000000        1.1575000000     
    C   -0.3525000000        2.2994000000       -0.9284000000     
    H   -0.0375000000        1.7897000000       -1.8376000000     
    H   -1.3932000000        2.6249000000       -1.0325000000     
    H    0.2750000000        3.1855000000       -0.7965000000     
    C   -1.0781000000        0.0925000000        0.1181000000     
    O   -0.5818000000       -0.9708000000       -0.2349000000     
    N   -2.4008000000        0.2394000000        0.3986000000     
    H   -2.8140000000        1.1433000000        0.6073000000     
    C   -3.3655000000       -0.8140000000        0.1409000000     
    H   -3.0869000000       -1.3167000000       -0.7942000000     
    C   -3.3870000000       -1.8607000000        1.2713000000     
    H   -3.6748000000       -1.3947000000        2.2194000000     
    H   -4.0927000000       -2.6707000000        1.0547000000     
    H   -2.3878000000       -2.2914000000        1.3728000000     
    C   -4.7335000000       -0.1276000000       -0.0232000000     
    O   -4.9090000000        1.0377000000        0.3274000000     
    N   -5.7104000000       -0.9087000000       -0.5523000000     
    H   -5.4717000000       -1.8469000000       -0.8414000000     
    C   -7.0760000000       -0.4486000000       -0.7465000000     
    H   -7.1321000000        0.5759000000       -0.3775000000     
    H   -7.3489000000       -0.4631000000       -1.8078000000     
    H   -7.7838000000       -1.0722000000       -0.1888000000     

15 17 19 25  F
17 19 25 27  F
