%chk=structure_210.chk
%NProcShared=8
#SP MP2/aug-cc-pVDZ

Single Point calculation at MP2

0   1
    H   -4.0447000000       -0.7293000000        1.0662000000     
    C   -3.3177000000       -1.1562000000        0.3687000000     
    H   -3.8711000000       -1.4872000000       -0.5161000000     
    H   -2.8405000000       -2.0223000000        0.8370000000     
    C   -2.3375000000       -0.0672000000       -0.0449000000     
    O   -2.7162000000        0.9923000000       -0.5355000000     
    N   -1.0204000000       -0.3508000000        0.1872000000     
    H   -0.7376000000       -1.3137000000        0.3351000000     
    C    0.0515000000        0.5029000000       -0.3098000000     
    H   -0.1076000000        0.6937000000       -1.3831000000     
    C    0.0780000000        1.8564000000        0.4169000000     
    H    0.3353000000        1.7338000000        1.4743000000     
    H    0.7885000000        2.5506000000       -0.0496000000     
    H   -0.9123000000        2.3081000000        0.3414000000     
    C    1.3419000000       -0.3371000000       -0.1829000000     
    O    1.2944000000       -1.5640000000       -0.2575000000     
    N    2.4947000000        0.3474000000        0.0310000000     
    H    2.4566000000        1.3532000000        0.0941000000     
    C    3.7904000000       -0.3056000000        0.1177000000     
    H    3.6185000000       -1.3820000000        0.0934000000     
    H    4.4349000000       -0.0257000000       -0.7242000000     
    H    4.2949000000       -0.0405000000        1.0534000000     

