%chk=structure_300.chk
%NProcShared=8
#SP MP2/aug-cc-pVDZ

Single Point calculation at MP2

0   1
    H    3.8090000000       -1.4514000000       -0.7651000000     
    C    3.0452000000       -1.5357000000        0.0129000000     
    H    3.5650000000       -1.6665000000        0.9679000000     
    H    2.4339000000       -2.4229000000       -0.1808000000     
    C    2.2505000000       -0.2375000000        0.0594000000     
    O    2.7966000000        0.8560000000        0.1299000000     
    N    0.8874000000       -0.3806000000        0.0148000000     
    H    0.5003000000       -1.3079000000        0.1215000000     
    C   -0.0193000000        0.7596000000        0.2117000000     
    H    0.2721000000        1.2910000000        1.1228000000     
    C    0.0216000000        1.7463000000       -0.9668000000     
    H   -0.2382000000        1.2591000000       -1.9139000000     
    H   -0.6834000000        2.5667000000       -0.7936000000     
    H    1.0289000000        2.1570000000       -1.0559000000     
    C   -1.4374000000        0.2277000000        0.4779000000     
    O   -2.0389000000        0.4716000000        1.5143000000     
    N   -1.9614000000       -0.5353000000       -0.5330000000     
    H   -1.4534000000       -0.5851000000       -1.4052000000     
    C   -3.3215000000       -1.0471000000       -0.4959000000     
    H   -3.6714000000       -0.9740000000        0.5345000000     
    H   -3.9931000000       -0.4624000000       -1.1374000000     
    H   -3.3477000000       -2.0937000000       -0.8172000000     

