%chk=structure_150.chk
%NProcShared=8
#SP MP2/aug-cc-pVDZ

Single Point calculation at MP2

0   1
    H   -3.8646000000       -1.3938000000       -0.9460000000     
    C   -3.3456000000       -1.1689000000       -0.0095000000     
    H   -2.9224000000       -2.0930000000        0.3961000000     
    H   -4.0921000000       -0.7820000000        0.6917000000     
    C   -2.3096000000       -0.0855000000       -0.2723000000     
    O   -2.6052000000        0.9876000000       -0.7912000000     
    N   -1.0342000000       -0.3917000000        0.0967000000     
    H   -0.8043000000       -1.2516000000        0.5802000000     
    C    0.0584000000        0.5550000000       -0.0310000000     
    H   -0.0058000000        1.0126000000       -1.0255000000     
    C   -0.0024000000        1.6711000000        1.0308000000     
    H    0.0693000000        1.2417000000        2.0354000000     
    H    0.8176000000        2.3863000000        0.8983000000     
    H   -0.9511000000        2.2038000000        0.9316000000     
    C    1.3572000000       -0.2502000000        0.1133000000     
    O    1.4047000000       -1.2566000000        0.8171000000     
    N    2.4250000000        0.2447000000       -0.5678000000     
    H    2.2887000000        1.0633000000       -1.1436000000     
    C    3.7534000000       -0.3396000000       -0.4887000000     
    H    3.6884000000       -1.2087000000        0.1668000000     
    H    4.1004000000       -0.6605000000       -1.4775000000     
    H    4.4756000000        0.3725000000       -0.0726000000     

