%chk=structure_150.chk
%NProcShared=8
# b3lyp/6-31G* Opt=(ModRedundant, maxcycles=1000, calcfc) geom=nocrowd

Phi Psi fixed scan

0   1
    H    0.2794000000        4.4661000000       -0.5095000000     
    C    1.1328000000        3.8369000000       -0.2568000000     
    H    1.2060000000        3.0183000000       -0.9728000000     
    H    1.0012000000        3.4309000000        0.7462000000     
    C    2.4367000000        4.6366000000       -0.2933000000     
    O    2.4278000000        5.8313000000       -0.5812000000     
    N    3.5554000000        3.9697000000       -0.0000000000     
    H    3.5119000000        2.9873000000        0.2306000000     
    C    4.8533000000        4.6139000000       -0.0000000000     
    H    5.4076000000        4.3155000000        0.8898000000     
    C    5.6613000000        4.2208000000       -1.2322000000     
    H    5.1233000000        4.5214000000       -2.1312000000     
    H    6.6305000000        4.7189000000       -1.2058000000     
    H    5.8085000000        3.1409000000       -1.2414000000     
    C    4.7127000000        6.1294000000        0.0000000000     
    O    3.7419000000        6.6658000000       -0.5295000000     
    N    5.6868000000        6.8201000000        0.5968000000     
    H    6.4653000000        6.3339000000        1.0185000000     
    C    5.6690000000        8.2675000000        0.6638000000     
    H    4.7735000000        8.6435000000        0.1690000000     
    H    5.6670000000        8.5835000000        1.7070000000     
    H    6.5530000000        8.6656000000        0.1657000000     

5 7 9 15 F
7 9 15 17 F
