%chk=structure_120.chk
%NProcShared=8
#SP MP2/aug-cc-pVDZ

Single Point calculation at MP2

0   1
    H   -3.7499000000       -1.5024000000        0.2024000000     
    C   -2.8637000000       -1.4397000000       -0.4308000000     
    H   -3.1695000000       -1.3271000000       -1.4773000000     
    H   -2.3053000000       -2.3795000000       -0.3375000000     
    C   -1.9974000000       -0.2820000000        0.0549000000     
    O   -2.1021000000        0.1804000000        1.1758000000     
    N   -1.1395000000        0.2200000000       -0.9192000000     
    H   -1.0913000000       -0.3680000000       -1.7434000000     
    C    0.1336000000        0.9036000000       -0.6436000000     
    H    0.5499000000        1.1367000000       -1.6317000000     
    C   -0.0725000000        2.2180000000        0.1224000000     
    H   -0.4740000000        2.0081000000        1.1138000000     
    H    0.8818000000        2.7483000000        0.2212000000     
    H   -0.7763000000        2.8579000000       -0.4190000000     
    C    1.1255000000        0.0024000000        0.1303000000     
    O    0.8736000000       -0.4770000000        1.2248000000     
    N    2.3053000000       -0.2258000000       -0.5316000000     
    H    2.4701000000        0.2443000000       -1.4097000000     
    C    3.3963000000       -0.9805000000        0.0607000000     
    H    3.0223000000       -1.4117000000        0.9903000000     
    H    3.7222000000       -1.7864000000       -0.6068000000     
    H    4.2565000000       -0.3379000000        0.2860000000     

