%chk=structure_210.chk
%NProcShared=8
#SP MP2/aug-cc-pVDZ

Single Point calculation at MP2

0   1
    H   -3.6886000000       -1.0752000000        0.9820000000     
    C   -3.0885000000       -1.0338000000        0.0710000000     
    H   -3.6929000000       -0.6346000000       -0.7501000000     
    H   -2.7874000000       -2.0564000000       -0.1871000000     
    C   -1.8417000000       -0.2067000000        0.3380000000     
    O   -1.3358000000       -0.1174000000        1.4492000000     
    N   -1.3253000000        0.4415000000       -0.7630000000     
    H   -1.6069000000        0.0621000000       -1.6575000000     
    C    0.0390000000        0.9698000000       -0.7236000000     
    H    0.2542000000        1.2936000000       -1.7500000000     
    C    0.1590000000        2.1982000000        0.1879000000     
    H    0.0254000000        1.9243000000        1.2361000000     
    H    1.1279000000        2.6927000000        0.0496000000     
    H   -0.6175000000        2.9220000000       -0.0772000000     
    C    1.0313000000       -0.1963000000       -0.4670000000     
    O    0.8156000000       -1.3000000000       -0.9533000000     
    N    2.1772000000        0.1118000000        0.2038000000     
    H    2.1931000000        0.9603000000        0.7501000000     
    C    3.1602000000       -0.9124000000        0.5223000000     
    H    3.1455000000       -1.6564000000       -0.2750000000     
    H    4.1549000000       -0.4612000000        0.5844000000     
    H    2.9354000000       -1.4179000000        1.4705000000     

