%chk=structure_30.chk
%NProcShared=8
#SP MP2/aug-cc-pVDZ

Single Point calculation at MP2

0   1
    H   -3.1010000000       -2.0395000000        0.3417000000     
    C   -3.0497000000       -1.0468000000       -0.1115000000     
    H   -3.8366000000       -0.4353000000        0.3449000000     
    H   -3.2513000000       -1.1269000000       -1.1847000000     
    C   -1.6944000000       -0.4315000000        0.2103000000     
    O   -1.1585000000       -0.5635000000        1.3018000000     
    N   -1.1140000000        0.2794000000       -0.8146000000     
    H   -1.6723000000        0.4522000000       -1.6392000000     
    C    0.0742000000        1.1246000000       -0.6262000000     
    H    0.3462000000        1.4676000000       -1.6329000000     
    C   -0.2021000000        2.3458000000        0.2575000000     
    H   -0.5143000000        2.0250000000        1.2542000000     
    H    0.7075000000        2.9409000000        0.3576000000     
    H   -0.9918000000        2.9624000000       -0.1856000000     
    C    1.3127000000        0.3477000000       -0.1150000000     
    O    2.2024000000        0.9315000000        0.4896000000     
    N    1.3897000000       -0.9585000000       -0.4943000000     
    H    0.5426000000       -1.3842000000       -0.8411000000     
    C    2.4457000000       -1.8277000000       -0.0053000000     
    H    3.3136000000       -1.2071000000        0.2213000000     
    H    2.1468000000       -2.3573000000        0.9088000000     
    H    2.7125000000       -2.5614000000       -0.7726000000     

