%chk=structure_195.chk
%NProcShared=8
#SP MP2/aug-cc-pVDZ

Single Point calculation at MP2

0   1
    H   -3.7421000000       -1.0805000000        0.8586000000     
    C   -3.0969000000       -1.0326000000       -0.0204000000     
    H   -3.6686000000       -0.6622000000       -0.8778000000     
    H   -2.7492000000       -2.0472000000       -0.2496000000     
    C   -1.8915000000       -0.1634000000        0.2972000000     
    O   -1.4819000000        0.0046000000        1.4370000000     
    N   -1.3038000000        0.4365000000       -0.8008000000     
    H   -1.5211000000       -0.0082000000       -1.6839000000     
    C    0.0668000000        0.9340000000       -0.7078000000     
    H    0.3383000000        1.2341000000       -1.7288000000     
    C    0.1765000000        2.1781000000        0.1870000000     
    H    0.0354000000        1.9195000000        1.2372000000     
    H    1.1431000000        2.6791000000        0.0519000000     
    H   -0.5995000000        2.8946000000       -0.0984000000     
    C    1.0244000000       -0.2403000000       -0.3614000000     
    O    0.7022000000       -1.3995000000       -0.5893000000     
    N    2.2703000000        0.1145000000        0.0672000000     
    H    2.4129000000        1.0584000000        0.3944000000     
    C    3.2656000000       -0.8837000000        0.4260000000     
    H    3.0488000000       -1.7914000000       -0.1381000000     
    H    4.2655000000       -0.5217000000        0.1675000000     
    H    3.2385000000       -1.1254000000        1.4965000000     

