%chk=structure_330.chk
%NProcShared=8
#SP MP2/aug-cc-pVDZ

Single Point calculation at MP2

0   1
    H   -3.7576000000       -1.7023000000       -0.4543000000     
    C   -3.1961000000       -1.2191000000        0.3489000000     
    H   -2.7311000000       -1.9861000000        0.9765000000     
    H   -3.9123000000       -0.6541000000        0.9565000000     
    C   -2.1962000000       -0.2525000000       -0.2690000000     
    O   -2.4873000000        0.4740000000       -1.2050000000     
    N   -0.9305000000       -0.2805000000        0.2970000000     
    H   -0.8964000000       -0.6778000000        1.2301000000     
    C    0.0256000000        0.8001000000        0.0367000000     
    H   -0.3366000000        1.2991000000       -0.8643000000     
    C    0.0871000000        1.8155000000        1.1884000000     
    H    0.4051000000        1.3350000000        2.1222000000     
    H    0.8074000000        2.6026000000        0.9488000000     
    H   -0.8958000000        2.2719000000        1.3436000000     
    C    1.4447000000        0.3046000000       -0.2898000000     
    O    2.2222000000        1.0234000000       -0.9033000000     
    N    1.8171000000       -0.8814000000        0.2878000000     
    H    1.0664000000       -1.5280000000        0.4922000000     
    C    3.1276000000       -1.4540000000        0.0139000000     
    H    3.8531000000       -0.6404000000       -0.0262000000     
    H    3.3977000000       -2.1449000000        0.8175000000     
    H    3.1596000000       -1.9885000000       -0.9449000000     

