%chk=structure_345.chk
%NProcShared=8
#SP MP2/aug-cc-pVDZ

Single Point calculation at MP2

0   1
    H    3.7531000000       -1.7151000000        0.3023000000     
    C    3.1789000000       -1.1686000000       -0.4494000000     
    H    2.7204000000       -1.8799000000       -1.1439000000     
    H    3.8813000000       -0.5386000000       -1.0076000000     
    C    2.1674000000       -0.2800000000        0.2594000000     
    O    2.4338000000        0.3185000000        1.2889000000     
    N    0.9203000000       -0.2196000000       -0.3429000000     
    H    0.8966000000       -0.5124000000       -1.3139000000     
    C   -0.0379000000        0.8275000000        0.0222000000     
    H    0.3014000000        1.2050000000        0.9902000000     
    C   -0.0544000000        1.9836000000       -0.9888000000     
    H   -0.3282000000        1.6281000000       -1.9905000000     
    H   -0.7914000000        2.7288000000       -0.6794000000     
    H    0.9317000000        2.4558000000       -1.0417000000     
    C   -1.4704000000        0.3068000000        0.2369000000     
    O   -2.3274000000        1.0461000000        0.7048000000     
    N   -1.7321000000       -0.9489000000       -0.2364000000     
    H   -0.9297000000       -1.5537000000       -0.3532000000     
    C   -3.0316000000       -1.5693000000       -0.0314000000     
    H   -3.7856000000       -0.7809000000       -0.0367000000     
    H   -3.2354000000       -2.2760000000       -0.8414000000     
    H   -3.0937000000       -2.0990000000        0.9285000000     

