%chk=structure_120.chk
NProcShared=8
# b3lyp/6-31G* Opt=(ModRedundant, maxcycles=1000, calcfc) geom=nocrowd

Phi Psi fixed scan

0   1
    H    2.5153000000        1.0000000000       -1.9230000000     
    C    2.5153000000        2.0900000000       -1.9230000000     
    H    1.6255000000        2.4539000000       -1.4093000000     
    H    2.5153000000        2.4539000000       -2.9505000000     
    C    3.7515000000        2.6408000000       -1.2093000000     
    O    4.5856000000        1.8774000000       -0.7277000000     
    N    3.8623000000        3.9697000000       -1.1453000000     
    H    3.1502000000        4.5562000000       -1.5565000000     
    C    4.9863000000        4.6139000000       -0.4964000000     
    H    5.0214000000        4.3155000000        0.5514000000     
    C    6.3021000000        4.2208000000       -1.1594000000     
    H    6.2857000000        4.5214000000       -2.2071000000     
    H    7.1283000000        4.7189000000       -0.6520000000     
    H    6.4342000000        3.1409000000       -1.0938000000     
    C    4.8645000000        6.1294000000       -0.5667000000     
    O    3.9015000000        6.6527000000       -1.1227000000     
    N    5.8460000000        6.8349000000        0.0000000000     
    H    6.6176000000        6.3592000000        0.4455000000     
    C    5.8461000000        8.2839000000        0.0000000000     
    H    5.3323000000        8.6477000000       -0.8898000000     
    C    5.1347000000        8.8329000000        1.2322000000     
    H    5.6431000000        8.4846000000        2.1312000000     
    H    5.1499000000        9.9224000000        1.2058000000     
    H    4.1019000000        8.4846000000        1.2414000000     
    C    7.2660000000        8.8318000000        0.0000000000     
    O    8.0386000000        8.5624000000        0.9171000000     
    N    7.6088000000        9.6038000000       -1.0338000000     
    H    6.9383000000        9.7970000000       -1.7640000000     
    C    8.9308000000       10.1857000000       -1.1497000000     
    H    9.1217000000       10.8292000000       -0.2909000000     
    C   10.0046000000        9.1038000000       -1.1963000000     
    H    9.8322000000        8.4568000000       -2.0563000000     
    H   10.9864000000        9.5692000000       -1.2833000000     
    H    9.9638000000        8.5111000000       -0.2824000000     
    C    9.0538000000       11.0180000000       -2.4180000000     
    O    8.1017000000       11.1268000000       -3.1875000000     
    N   10.2322000000       11.6068000000       -2.6346000000     
    H   10.9855000000       11.4877000000       -1.9725000000     
    C   10.4755000000       12.4252000000       -3.8053000000     
    H    9.5757000000       12.4581000000       -4.4197000000     
    H   10.7397000000       13.4359000000       -3.4943000000     
    H   11.2945000000       11.9980000000       -4.3841000000     

15 17 19 25 F
17 19 25 27 F
