%chk=structure_135.chk
%NProcShared=8
#SP MP2/aug-cc-pVDZ

Single Point calculation at MP2

0   1
    H   -4.1165000000       -1.2115000000       -0.0124000000     
    C   -3.0524000000       -1.4440000000       -0.0773000000     
    H   -2.8670000000       -2.0598000000       -0.9643000000     
    H   -2.7689000000       -2.0276000000        0.8069000000     
    C   -2.2683000000       -0.1351000000       -0.0940000000     
    O   -2.7421000000        0.9048000000        0.3379000000     
    N   -1.0150000000       -0.2556000000       -0.6556000000     
    H   -0.7413000000       -1.2120000000       -0.8414000000     
    C    0.1294000000        0.6471000000       -0.5209000000     
    H    0.4257000000        0.9708000000       -1.5312000000     
    C   -0.1093000000        1.9044000000        0.3303000000     
    H   -0.3661000000        1.6338000000        1.3561000000     
    H    0.8175000000        2.4903000000        0.3419000000     
    H   -0.9167000000        2.5132000000       -0.0744000000     
    C    1.2942000000       -0.1501000000        0.1078000000     
    O    1.1221000000       -0.9025000000        1.0582000000     
    N    2.5043000000        0.0438000000       -0.4938000000     
    H    2.5605000000        0.6958000000       -1.2633000000     
    C    3.7359000000       -0.5326000000        0.0184000000     
    H    3.4627000000       -1.2224000000        0.8181000000     
    H    4.2648000000       -1.0821000000       -0.7682000000     
    H    4.4037000000        0.2377000000        0.4231000000     

