%chk=structure_15.chk
%NProcShared=8
#SP MP2/aug-cc-pVDZ

Single Point calculation at MP2

0   1
    H   -3.7092000000       -1.6215000000        0.5422000000     
    C   -3.1011000000       -1.3045000000       -0.3068000000     
    H   -3.7644000000       -0.8287000000       -1.0394000000     
    H   -2.6483000000       -2.1839000000       -0.7778000000     
    C   -2.0747000000       -0.2866000000        0.1843000000     
    O   -2.2891000000        0.4272000000        1.1491000000     
    N   -0.9018000000       -0.2776000000       -0.5516000000     
    H   -0.9451000000       -0.8426000000       -1.3907000000     
    C    0.1123000000        0.7955000000       -0.6282000000     
    H    0.2491000000        1.0001000000       -1.6995000000     
    C   -0.2663000000        2.1202000000        0.0403000000     
    H   -0.4126000000        2.0067000000        1.1138000000     
    H    0.5526000000        2.8199000000       -0.1396000000     
    H   -1.1886000000        2.5215000000       -0.3881000000     
    C    1.5135000000        0.3312000000       -0.1548000000     
    O    2.4194000000        1.1430000000       -0.0121000000     
    N    1.6845000000       -1.0185000000       -0.0534000000     
    H    0.8391000000       -1.5677000000        0.0274000000     
    C    2.9355000000       -1.5903000000        0.4156000000     
    H    3.7328000000       -0.8817000000        0.1870000000     
    H    2.9288000000       -1.7678000000        1.4991000000     
    H    3.1298000000       -2.5375000000       -0.0974000000     

