--Link1--
%nproc=8
%mem=4096MB
%chk=IPolQout.vacu.chk
#MP2/cc-pvTZ density=MP2, maxdisk=16GB, pop=(minimal, MK), 5d, punch=mo

Generated by mdgx

0   1
    H    16.4532483   17.1419328   12.5328268
    C    16.9651141   16.3994577   13.1450562
    H    18.0245803   16.4847458   12.9034835
    H    16.6192889   15.3794729   12.9773181
    C    16.8409768   16.8582161   14.6238357
    O    16.5917012   18.0134194   14.8691658
    N    16.8278651   15.9102716   15.6065968
    H    16.9537458   14.9369176   15.3681939
    C    16.6183553   16.2097893   17.0529841
    H    16.4104357   15.2707009   17.5658021
    C    17.9707151   16.6780399   17.6512625
    H    18.3705141   17.6193941   17.2742836
    H    17.9531391   16.7943782   18.7348938
    H    18.7324824   15.9268414   17.4426686
    C    15.4904520   17.1652255   17.2868255
    O    15.6195596   18.0842371   18.1724554
    N    14.3368710   17.0505448   16.5590808
    H    14.2541051   16.1799115   16.0538606
    C    13.2215457   17.9896914   16.7870915
    H    12.4826589   18.0473434   15.9878278
    H    12.7953724   17.7238318   17.7544567
    H    13.7538403   18.9408423   16.7784528



