%chk=structure_75.chk
%NProcShared=8
#SP MP2/aug-cc-pVDZ

Single Point calculation at MP2

0   1
    H    3.3169000000       -1.6894000000       -0.9781000000     
    C    3.1790000000       -0.6223000000       -0.7834000000     
    H    3.1549000000       -0.0827000000       -1.7353000000     
    H    4.0455000000       -0.2806000000       -0.2072000000     
    C    1.9284000000       -0.4327000000        0.0577000000     
    O    1.7282000000       -1.0850000000        1.0820000000     
    N    1.0286000000        0.4860000000       -0.4000000000     
    H    1.2389000000        1.0142000000       -1.2359000000     
    C   -0.0848000000        0.9543000000        0.4322000000     
    H    0.1322000000        0.5973000000        1.4427000000     
    C   -0.1880000000        2.4764000000        0.4052000000     
    H   -0.4306000000        2.8309000000       -0.6015000000     
    H   -0.9934000000        2.8113000000        1.0652000000     
    H    0.7510000000        2.9301000000        0.7381000000     
    C   -1.3916000000        0.2950000000       -0.0650000000     
    O   -2.2318000000        0.8982000000       -0.7223000000     
    N   -1.4874000000       -1.0151000000        0.2983000000     
    H   -0.6863000000       -1.4261000000        0.7661000000     
    C   -2.5657000000       -1.8770000000       -0.1495000000     
    H   -3.3349000000       -1.2414000000       -0.5909000000     
    H   -2.2244000000       -2.5965000000       -0.9052000000     
    H   -2.9934000000       -2.4304000000        0.6936000000     

