%chk=structure_285.chk
%NProcShared=8
#SP MP2/aug-cc-pVDZ

Single Point calculation at MP2

0   1
    H    4.0292000000       -0.9506000000       -0.7443000000     
    C    2.9741000000       -1.2273000000       -0.8085000000     
    H    2.8696000000       -2.2324000000       -0.3845000000     
    H    2.6721000000       -1.2586000000       -1.8606000000     
    C    2.1612000000       -0.2520000000        0.0308000000     
    O    2.5318000000        0.1251000000        1.1317000000     
    N    0.9914000000        0.1826000000       -0.5552000000     
    H    0.6907000000       -0.2848000000       -1.4005000000     
    C   -0.0262000000        0.9162000000        0.1978000000     
    H    0.4267000000        1.1260000000        1.1681000000     
    C   -0.3981000000        2.2319000000       -0.4982000000     
    H   -0.7425000000        2.0786000000       -1.5297000000     
    H   -1.1885000000        2.7559000000        0.0506000000     
    H    0.4802000000        2.8824000000       -0.5467000000     
    C   -1.2236000000       -0.0119000000        0.4984000000     
    O   -1.3759000000       -0.5374000000        1.5908000000     
    N   -2.0473000000       -0.2673000000       -0.5711000000     
    H   -1.9937000000        0.3461000000       -1.3721000000     
    C   -3.2363000000       -1.0946000000       -0.4363000000     
    H   -3.0731000000       -1.7777000000        0.3980000000     
    H   -4.1335000000       -0.4979000000       -0.2249000000     
    H   -3.4002000000       -1.6690000000       -1.3533000000     

