%chk=structure_30.chk
%NProcShared=8
#SP MP2/aug-cc-pVDZ

Single Point calculation at MP2

0   1
    H    3.4642000000       -1.7363000000       -0.5110000000     
    C    3.1969000000       -0.6909000000       -0.6845000000     
    H    3.0389000000       -0.5303000000       -1.7558000000     
    H    4.0456000000       -0.0776000000       -0.3619000000     
    C    1.9879000000       -0.3427000000        0.1710000000     
    O    1.8954000000       -0.6928000000        1.3423000000     
    N    1.0105000000        0.3854000000       -0.4566000000     
    H    1.1525000000        0.6590000000       -1.4195000000     
    C   -0.1137000000        0.9959000000        0.2508000000     
    H    0.1310000000        0.8987000000        1.3155000000     
    C   -0.2600000000        2.4732000000       -0.1162000000     
    H   -0.4236000000        2.5981000000       -1.1938000000     
    H   -1.1267000000        2.8957000000        0.3947000000     
    H    0.6396000000        3.0272000000        0.1690000000     
    C   -1.4517000000        0.2428000000        0.0500000000     
    O   -2.5248000000        0.8338000000        0.0980000000     
    N   -1.3360000000       -1.0987000000       -0.1546000000     
    H   -0.4194000000       -1.5094000000       -0.0474000000     
    C   -2.4922000000       -1.9759000000       -0.2018000000     
    H   -3.3749000000       -1.3504000000       -0.3419000000     
    H   -2.4079000000       -2.6791000000       -1.0375000000     
    H   -2.6078000000       -2.5457000000        0.7291000000     

