%chk=structure_120.chk
%NProcShared=8
#SP MP2/aug-cc-pVDZ

Single Point calculation at MP2

0   1
    H   -4.1123000000       -0.6558000000        0.3681000000     
    C   -3.1427000000       -0.8242000000        0.8460000000     
    H   -3.0687000000       -1.8943000000        1.0648000000     
    H   -3.1062000000       -0.2649000000        1.7858000000     
    C   -2.0437000000       -0.4462000000       -0.1352000000     
    O   -1.9843000000       -0.9310000000       -1.2598000000     
    N   -1.1486000000        0.4877000000        0.3195000000     
    H   -1.1212000000        0.7047000000        1.3077000000     
    C    0.0435000000        0.8456000000       -0.4412000000     
    H   -0.1176000000        0.4400000000       -1.4428000000     
    C    0.2293000000        2.3654000000       -0.5010000000     
    H    0.3936000000        2.7665000000        0.5042000000     
    H    1.1009000000        2.6231000000       -1.1133000000     
    H   -0.6567000000        2.8374000000       -0.9360000000     
    C    1.2583000000        0.1915000000        0.2400000000     
    O    1.5420000000        0.4650000000        1.4032000000     
    N    1.9652000000       -0.6797000000       -0.5305000000     
    H    1.5908000000       -0.9243000000       -1.4364000000     
    C    3.1081000000       -1.4229000000       -0.0268000000     
    H    3.3741000000       -0.9971000000        0.9415000000     
    H    2.8696000000       -2.4854000000        0.1057000000     
    H    3.9593000000       -1.3333000000       -0.7104000000     

