%chk=structure_90.chk
%NProcShared=8
#SP MP2/aug-cc-pVDZ

Single Point calculation at MP2

0   1
    H   -3.2319000000       -1.7522000000        1.0685000000     
    C   -3.1592000000       -0.6869000000        0.8318000000     
    H   -3.1346000000       -0.1129000000        1.7634000000     
    H   -4.0607000000       -0.4142000000        0.2733000000     
    C   -1.9479000000       -0.4621000000       -0.0579000000     
    O   -1.7710000000       -1.1065000000       -1.0900000000     
    N   -1.0669000000        0.4926000000        0.3638000000     
    H   -1.2258000000        0.9811000000        1.2340000000     
    C    0.0629000000        0.9177000000       -0.4636000000     
    H   -0.1319000000        0.5078000000       -1.4571000000     
    C    0.1661000000        2.4405000000       -0.5167000000     
    H    0.4042000000        2.8429000000        0.4728000000     
    H    0.9721000000        2.7423000000       -1.1932000000     
    H   -0.7722000000        2.8756000000       -0.8747000000     
    C    1.3498000000        0.2976000000        0.1203000000     
    O    2.0188000000        0.8630000000        0.9777000000     
    N    1.6455000000       -0.9264000000       -0.4040000000     
    H    0.9373000000       -1.3604000000       -0.9844000000     
    C    2.7253000000       -1.7512000000        0.1096000000     
    H    3.3956000000       -1.1029000000        0.6758000000     
    H    2.3554000000       -2.5423000000        0.7750000000     
    H    3.2769000000       -2.2137000000       -0.7154000000     

