%chk=structure_165.chk
%NProcShared=8
#SP MP2/aug-cc-pVDZ

Single Point calculation at MP2

0   1
    H    4.1874000000       -0.8816000000        0.0915000000     
    C    3.2302000000       -1.0057000000       -0.4190000000     
    H    2.9562000000       -2.0665000000       -0.3707000000     
    H    3.3350000000       -0.7252000000       -1.4718000000     
    C    2.1754000000       -0.1847000000        0.3054000000     
    O    2.2138000000        0.0130000000        1.5129000000     
    N    1.1891000000        0.3348000000       -0.5076000000     
    H    1.0521000000       -0.1344000000       -1.3975000000     
    C   -0.0508000000        0.8238000000        0.0716000000     
    H    0.1259000000        0.9001000000        1.1493000000     
    C   -0.4234000000        2.2049000000       -0.4961000000     
    H   -0.5817000000        2.1480000000       -1.5789000000     
    H   -1.3418000000        2.5913000000       -0.0407000000     
    H    0.3873000000        2.9134000000       -0.3030000000     
    C   -1.1676000000       -0.2039000000       -0.2077000000     
    O   -1.0510000000       -1.0493000000       -1.0903000000     
    N   -2.2973000000       -0.0449000000        0.5362000000     
    H   -2.2742000000        0.6125000000        1.3033000000     
    C   -3.4555000000       -0.9135000000        0.4054000000     
    H   -3.3123000000       -1.5165000000       -0.4920000000     
    H   -3.5576000000       -1.5821000000        1.2690000000     
    H   -4.3722000000       -0.3227000000        0.3035000000     

