%chk=structure_225.chk
%NProcShared=8
#SP MP2/aug-cc-pVDZ

Single Point calculation at MP2

0   1
    H    4.1871000000       -0.8482000000       -0.3513000000     
    C    3.1742000000       -0.9554000000       -0.7432000000     
    H    2.8843000000       -2.0102000000       -0.6651000000     
    H    3.1577000000       -0.6731000000       -1.8014000000     
    C    2.2263000000       -0.1184000000        0.0996000000     
    O    2.4563000000        0.1665000000        1.2654000000     
    N    1.0917000000        0.3094000000       -0.5609000000     
    H    0.8855000000       -0.1560000000       -1.4361000000     
    C   -0.0584000000        0.7901000000        0.1959000000     
    H    0.2931000000        0.8426000000        1.2327000000     
    C   -0.4735000000        2.1958000000       -0.2591000000     
    H   -0.8367000000        2.2025000000       -1.2941000000     
    H   -1.2505000000        2.6191000000        0.3898000000     
    H    0.3928000000        2.8605000000       -0.2050000000     
    C   -1.1526000000       -0.3044000000        0.1674000000     
    O   -0.8529000000       -1.4813000000        0.3305000000     
    N   -2.4290000000        0.1091000000       -0.0854000000     
    H   -2.6144000000        1.0956000000       -0.1800000000     
    C   -3.5576000000       -0.8064000000       -0.0778000000     
    H   -3.1562000000       -1.8177000000       -0.0030000000     
    H   -4.2202000000       -0.6212000000        0.7766000000     
    H   -4.1386000000       -0.7134000000       -1.0022000000     

