%chk=structure_180.chk
NProcShared=8
# HF/6-31G* Opt=(ModRedundant, maxcycles=1000, calcfc) geom=nocrowd

Phi Psi fixed scan

0   1
    H    7.7691000000        1.0000000000        3.3308000000     
    C    7.7691000000        2.0900000000        3.3308000000     
    H    8.7966000000        2.4538000000        3.3308000000     
    H    7.2553000000        2.4538000000        4.2206000000     
    C    7.0554000000        2.6408000000        2.0946000000     
    O    6.5738000000        1.8774000000        1.2605000000     
    N    6.9914000000        3.9696000000        1.9838000000     
    H    7.4025000000        4.5561000000        2.6959000000     
    C    6.3424000000        4.6139000000        0.8598000000     
    H    6.8359000000        4.3155000000       -0.0652000000     
    C    4.8714000000        4.2208000000        0.7761000000     
    H    4.3618000000        4.5213000000        1.6916000000     
    H    4.4096000000        4.7189000000       -0.0764000000     
    H    4.7897000000        3.1409000000        0.6532000000     
    C    6.4127000000        6.1294000000        0.9815000000     
    O    6.9688000000        6.6527000000        1.9446000000     
    N    5.8460000000        6.8349000000        0.0000000000     
    H    5.4006000000        6.3592000000       -0.7716000000     
    C    5.8461000000        8.2839000000        0.0000000000     
    H    5.3323000000        8.6477000000       -0.8898000000     
    C    5.1347000000        8.8329000000        1.2322000000     
    H    5.6431000000        8.4846000000        2.1312000000     
    H    5.1499000000        9.9224000000        1.2058000000     
    H    4.1019000000        8.4846000000        1.2414000000     
    C    7.2660000000        8.8318000000        0.0000000000     
    O    8.2292000000        8.0684000000       -0.0000000000     
    N    7.3940000000       10.1607000000        0.0000000000     
    H    6.5717000000       10.7472000000        0.0000000000     
    C    8.6919000000       10.8049000000       -0.0000000000     
    H    9.2462000000       10.5065000000        0.8898000000     
    C    9.4999000000       10.4118000000       -1.2322000000     
    H    8.9619000000       10.7124000000       -2.1312000000     
    H   10.4691000000       10.9099000000       -1.2058000000     
    H    9.6471000000        9.3319000000       -1.2414000000     
    C    8.5513000000       12.3204000000        0.0000000000     
    O    7.4392000000       12.8437000000        0.0000000000     
    N    9.6846000000       13.0259000000        0.0000000000     
    H   10.5756000000       12.5502000000        0.0000000000     
    C    9.6846000000       14.4749000000        0.0000000000     
    H    8.6572000000       14.8387000000        0.0000000000     
    H   10.1984000000       14.8387000000        0.8898000000     
    H   10.1984000000       14.8387000000       -0.8898000000     

15 17 19 25 F
17 19 25 27 F
