%chk=structure_60.chk
%NProcShared=8
#SP MP2/aug-cc-pVDZ 

Phi Psi fixed scan

0   1
    H   -5.5217000000       -3.1749000000       -0.1417000000     
    C   -5.1587000000       -2.4020000000       -0.8265000000     
    H   -6.0140000000       -2.0666000000       -1.4212000000     
    H   -4.4092000000       -2.8405000000       -1.4923000000     
    C   -4.6392000000       -1.2278000000       -0.0108000000     
    O   -5.3549000000       -0.6076000000        0.7711000000     
    N   -3.3261000000       -0.9157000000       -0.2000000000     
    H   -2.7546000000       -1.3747000000       -0.8997000000     
    C   -2.7091000000        0.2185000000        0.4574000000     
    H   -3.4318000000        1.0443000000        0.4666000000     
    C   -2.3165000000       -0.1009000000        1.9144000000     
    H   -1.5815000000       -0.9118000000        1.9440000000     
    H   -1.8903000000        0.7741000000        2.4186000000     
    H   -3.2134000000       -0.4094000000        2.4569000000     
    C   -1.4818000000        0.6095000000       -0.3783000000     
    O   -1.0140000000       -0.1463000000       -1.2337000000     
    N   -0.9309000000        1.8149000000       -0.0949000000     
    H   -1.3383000000        2.3854000000        0.6343000000     
    C    0.2124000000        2.3643000000       -0.8321000000     
    H    0.1662000000        1.9107000000       -1.8283000000     
    C    0.1017000000        3.8820000000       -0.9327000000     
    H    0.1375000000        4.3455000000        0.0588000000     
    H    0.9440000000        4.2823000000       -1.5012000000     
    H   -0.8314000000        4.1626000000       -1.4313000000     
    C    1.5550000000        1.9418000000       -0.1825000000     
    O    2.3542000000        2.7675000000        0.2532000000     
    N    1.7624000000        0.6021000000       -0.1264000000     
    H    1.1124000000       -0.0552000000       -0.5552000000     
    C    2.9785000000        0.0532000000        0.4467000000     
    H    3.8112000000        0.7057000000        0.1569000000     
    C    2.9146000000       -0.0026000000        1.9862000000     
    H    2.0923000000       -0.6497000000        2.3085000000     
    H    3.8485000000       -0.3904000000        2.4087000000     
    H    2.7509000000        1.0063000000        2.3741000000     
    C    3.1746000000       -1.3528000000       -0.1392000000     
    O    2.2293000000       -2.0069000000       -0.5675000000     
    N    4.4558000000       -1.8133000000       -0.1018000000     
    H    5.1808000000       -1.1932000000        0.2303000000     
    C    4.8290000000       -3.1435000000       -0.5522000000     
    H    3.9164000000       -3.6450000000       -0.8765000000     
    H    5.5288000000       -3.0938000000       -1.3945000000     
    H    5.2894000000       -3.7206000000        0.2581000000     

15 17 19 25  F
17 19 25 27  F
