%chk=structure_210.chk
%NProcShared=8
#SP MP2/aug-cc-pVDZ 

Phi Psi fixed scan

0   1
    H    7.5518000000        0.6238000000        0.0763000000     
    C    6.9119000000       -0.1396000000        0.5295000000     
    H    6.6674000000        0.1605000000        1.5531000000     
    H    7.4872000000       -1.0704000000        0.5596000000     
    C    5.6910000000       -0.3445000000       -0.3564000000     
    O    5.7907000000       -0.6591000000       -1.5396000000     
    N    4.4877000000       -0.1568000000        0.2521000000     
    H    4.4097000000        0.1389000000        1.2176000000     
    C    3.2312000000       -0.2778000000       -0.4624000000     
    H    3.3721000000        0.1396000000       -1.4666000000     
    C    2.7752000000       -1.7453000000       -0.5928000000     
    H    2.6605000000       -2.1926000000        0.3991000000     
    H    1.8122000000       -1.8212000000       -1.1079000000     
    H    3.5307000000       -2.2992000000       -1.1561000000     
    C    2.1907000000        0.5397000000        0.3108000000     
    O    2.3203000000        0.7773000000        1.5070000000     
    N    1.1383000000        0.9996000000       -0.4370000000     
    H    1.0472000000        0.6008000000       -1.3640000000     
    C   -0.1056000000        1.4046000000        0.2039000000     
    H    0.1761000000        1.6561000000        1.2325000000     
    C   -0.6956000000        2.6448000000       -0.4786000000     
    H   -1.0328000000        2.4291000000       -1.4994000000     
    H   -1.5444000000        3.0500000000        0.0830000000     
    H    0.0668000000        3.4269000000       -0.5299000000     
    C   -1.0430000000        0.1722000000        0.2992000000     
    O   -0.5844000000       -0.9633000000        0.4015000000     
    N   -2.3760000000        0.4183000000        0.2606000000     
    H   -2.7651000000        1.3402000000        0.1001000000     
    C   -3.3592000000       -0.6463000000        0.3431000000     
    H   -3.0205000000       -1.4763000000       -0.2898000000     
    C   -3.5309000000       -1.1660000000        1.7838000000     
    H   -3.8843000000       -0.3642000000        2.4402000000     
    H   -4.2501000000       -1.9919000000        1.8265000000     
    H   -2.5664000000       -1.5282000000        2.1479000000     
    C   -4.6746000000       -0.0688000000       -0.2074000000     
    O   -4.8360000000        1.1435000000       -0.3328000000     
    N   -5.6258000000       -0.9896000000       -0.5108000000     
    H   -5.4009000000       -1.9680000000       -0.3969000000     
    C   -6.9503000000       -0.6323000000       -0.9927000000     
    H   -6.9956000000        0.4557000000       -1.0490000000     
    H   -7.1322000000       -1.0514000000       -1.9888000000     
    H   -7.7282000000       -0.9904000000       -0.3088000000     

15 17 19 25  F
17 19 25 27  F
