%chk=structure_0.chk
%NProcShared=8
#SP MP2/aug-cc-pVDZ 

Phi Psi fixed scan

0   1
    H   -5.7508000000       -2.5180000000       -0.8339000000     
    C   -5.4674000000       -1.5022000000       -1.1271000000     
    H   -6.3906000000       -0.9235000000       -1.2294000000     
    H   -4.9592000000       -1.5407000000       -2.0955000000     
    C   -4.6243000000       -0.8881000000       -0.0192000000     
    O   -5.0505000000       -0.7497000000        1.1244000000     
    N   -3.3643000000       -0.5145000000       -0.3792000000     
    H   -3.0567000000       -0.5206000000       -1.3449000000     
    C   -2.4769000000        0.1665000000        0.5423000000     
    H   -3.0685000000        0.8924000000        1.1167000000     
    C   -1.8097000000       -0.8070000000        1.5350000000     
    H   -1.1470000000       -1.5076000000        1.0175000000     
    H   -1.2206000000       -0.2700000000        2.2880000000     
    H   -2.5939000000       -1.3630000000        2.0543000000     
    C   -1.4396000000        0.9148000000       -0.3110000000     
    O   -1.3503000000        0.7467000000       -1.5239000000     
    N   -0.6147000000        1.7585000000        0.3762000000     
    H   -0.7696000000        1.8911000000        1.3670000000     
    C    0.4038000000        2.5759000000       -0.2774000000     
    H    0.0649000000        2.7293000000       -1.3070000000     
    C    0.5466000000        3.9311000000        0.4219000000     
    H    0.8228000000        3.8055000000        1.4769000000     
    H    1.3373000000        4.5041000000       -0.0664000000     
    H   -0.3911000000        4.4930000000        0.3714000000     
    C    1.7865000000        1.8985000000       -0.4112000000     
    O    2.7144000000        2.5017000000       -0.9452000000     
    N    1.8974000000        0.6439000000        0.0842000000     
    H    1.0897000000        0.1459000000        0.4390000000     
    C    3.0937000000       -0.1549000000       -0.0945000000     
    H    3.4871000000        0.0356000000       -1.1014000000     
    C    4.1851000000        0.2034000000        0.9329000000     
    H    3.8292000000        0.0133000000        1.9508000000     
    H    5.0962000000       -0.3829000000        0.7684000000     
    H    4.4312000000        1.2633000000        0.8314000000     
    C    2.6650000000       -1.6270000000        0.0328000000     
    O    1.5979000000       -1.9410000000        0.5568000000     
    N    3.5618000000       -2.5298000000       -0.4426000000     
    H    4.3956000000       -2.1842000000       -0.8965000000     
    C    3.3510000000       -3.9668000000       -0.3766000000     
    H    2.4106000000       -4.1357000000        0.1489000000     
    H    3.2834000000       -4.4022000000       -1.3802000000     
    H    4.1639000000       -4.4575000000        0.1703000000     

15 17 19 25  F
17 19 25 27  F
