%chk=structure_180.chk
%NProcShared=8
#SP MP2/aug-cc-pVDZ 

Phi Psi fixed scan

0   1
    H    7.3788000000       -1.1319000000        1.0444000000     
    C    6.7878000000       -0.2117000000        1.0887000000     
    H    7.4648000000        0.6205000000        0.8721000000     
    H    6.3887000000       -0.0934000000        2.1009000000     
    C    5.7152000000       -0.2643000000        0.0098000000     
    O    5.9944000000       -0.3842000000       -1.1802000000     
    N    4.4318000000       -0.1695000000        0.4546000000     
    H    4.2068000000       -0.0396000000        1.4334000000     
    C    3.2963000000       -0.1706000000       -0.4483000000     
    H    3.5700000000        0.4069000000       -1.3390000000     
    C    2.8981000000       -1.5966000000       -0.8823000000     
    H    2.6750000000       -2.2069000000       -0.0012000000     
    H    2.0089000000       -1.5871000000       -1.5208000000     
    H    3.7327000000       -2.0449000000       -1.4275000000     
    C    2.1334000000        0.5062000000        0.2850000000     
    O    2.0730000000        0.5284000000        1.5108000000     
    N    1.1951000000        1.0907000000       -0.5249000000     
    H    1.2205000000        0.8024000000       -1.4965000000     
    C   -0.1361000000        1.3822000000       -0.0176000000     
    H   -0.0240000000        1.5128000000        1.0632000000     
    C   -0.6825000000        2.6736000000       -0.6463000000     
    H   -0.7989000000        2.5649000000       -1.7311000000     
    H   -1.6587000000        2.9452000000       -0.2329000000     
    H    0.0110000000        3.4977000000       -0.4566000000     
    C   -1.0564000000        0.1615000000       -0.2692000000     
    O   -0.6541000000       -0.8441000000       -0.8515000000     
    N   -2.3350000000        0.2993000000        0.1579000000     
    H   -2.6719000000        1.1362000000        0.6217000000     
    C   -3.3405000000       -0.7296000000       -0.0336000000     
    H   -3.2475000000       -1.1140000000       -1.0569000000     
    C   -3.1685000000       -1.9024000000        0.9516000000     
    H   -3.2757000000       -1.5534000000        1.9838000000     
    H   -3.9124000000       -2.6866000000        0.7712000000     
    H   -2.1726000000       -2.3327000000        0.8216000000     
    C   -4.7049000000       -0.0415000000        0.1482000000     
    O   -4.7979000000        1.0497000000        0.7068000000     
    N   -5.7705000000       -0.7386000000       -0.3241000000     
    H   -5.6011000000       -1.6199000000       -0.7882000000     
    C   -7.1424000000       -0.2752000000       -0.1918000000     
    H   -7.1146000000        0.6893000000        0.3162000000     
    H   -7.6102000000       -0.1502000000       -1.1748000000     
    H   -7.7407000000       -0.9770000000        0.4004000000     

15 17 19 25  F
17 19 25 27  F
