%chk=structure_330.chk
%NProcShared=8
#SP MP2/aug-cc-pVDZ 

Phi Psi fixed scan

0   1
    H    6.4141000000       -1.8915000000        0.9473000000     
    C    6.0407000000       -0.8674000000        0.8482000000     
    H    6.8433000000       -0.2701000000        0.4047000000     
    H    5.8109000000       -0.4744000000        1.8433000000     
    C    4.8499000000       -0.8687000000       -0.0993000000     
    O    4.9396000000       -1.2608000000       -1.2595000000     
    N    3.6813000000       -0.4054000000        0.4264000000     
    H    3.6129000000       -0.0649000000        1.3776000000     
    C    2.4610000000       -0.3261000000       -0.3543000000     
    H    2.7374000000       -0.0439000000       -1.3770000000     
    C    1.7120000000       -1.6739000000       -0.3954000000     
    H    1.4629000000       -1.9954000000        0.6211000000     
    H    0.7820000000       -1.6089000000       -0.9708000000     
    H    2.3611000000       -2.4226000000       -0.8573000000     
    C    1.5872000000        0.7561000000        0.2925000000     
    O    1.6546000000        1.0033000000        1.4923000000     
    N    0.7060000000        1.3782000000       -0.5459000000     
    H    0.8023000000        1.2223000000       -1.5411000000     
    C   -0.1958000000        2.4346000000       -0.0908000000     
    H    0.2692000000        2.9021000000        0.7806000000     
    C   -0.4130000000        3.4790000000       -1.1913000000     
    H   -0.8599000000        3.0259000000       -2.0850000000     
    H   -1.0945000000        4.2528000000       -0.8284000000     
    H    0.5354000000        3.9489000000       -1.4716000000     
    C   -1.5573000000        1.9103000000        0.4119000000     
    O   -2.2206000000        2.5609000000        1.2128000000     
    N   -1.9953000000        0.7657000000       -0.1746000000     
    H   -1.3495000000        0.1751000000       -0.6879000000     
    C   -3.2099000000        0.0991000000        0.2529000000     
    H   -3.3094000000        0.2210000000        1.3397000000     
    C   -4.4578000000        0.7006000000       -0.4208000000     
    H   -4.4004000000        0.5856000000       -1.5081000000     
    H   -5.3778000000        0.2206000000       -0.0683000000     
    H   -4.5095000000        1.7647000000       -0.1767000000     
    C   -3.0355000000       -1.3931000000       -0.0856000000     
    O   -2.1258000000       -1.7834000000       -0.8163000000     
    N   -3.9615000000       -2.2207000000        0.4633000000     
    H   -4.6581000000       -1.8217000000        1.0766000000     
    C   -3.9753000000       -3.6572000000        0.2386000000     
    H   -3.1407000000       -3.8937000000       -0.4220000000     
    H   -3.8530000000       -4.2027000000        1.1811000000     
    H   -4.9114000000       -3.9727000000       -0.2360000000     

15 17 19 25  F
17 19 25 27  F
