%chk=structure_300.chk
%NProcShared=8
#SP MP2/aug-cc-pVDZ 

Phi Psi fixed scan

0   1
    H    3.8337000000        3.7677000000       -0.1260000000     
    C    4.0812000000        2.9473000000        0.5548000000     
    H    3.4399000000        3.0116000000        1.4390000000     
    H    5.1239000000        3.0803000000        0.8594000000     
    C    3.9539000000        1.6320000000       -0.1984000000     
    O    4.6001000000        1.3960000000       -1.2159000000     
    N    3.0802000000        0.7311000000        0.3331000000     
    H    2.4974000000        0.9477000000        1.1331000000     
    C    2.8053000000       -0.5368000000       -0.3129000000     
    H    2.7801000000       -0.3681000000       -1.3969000000     
    C    3.8891000000       -1.5908000000       -0.0095000000     
    H    3.9397000000       -1.7887000000        1.0662000000     
    H    3.6843000000       -2.5337000000       -0.5297000000     
    H    4.8546000000       -1.2078000000       -0.3489000000     
    C    1.4303000000       -1.0061000000        0.1815000000     
    O    0.9615000000       -0.5949000000        1.2453000000     
    N    0.7841000000       -1.8817000000       -0.6292000000     
    H    1.2276000000       -2.1147000000       -1.5070000000     
    C   -0.4004000000       -2.6810000000       -0.2647000000     
    H   -0.4086000000       -3.5175000000       -0.9683000000     
    C   -0.3697000000       -3.2547000000        1.1579000000     
    H   -0.3905000000       -2.4728000000        1.9166000000     
    H   -1.2394000000       -3.9067000000        1.2893000000     
    H    0.5349000000       -3.8554000000        1.3014000000     
    C   -1.7136000000       -1.9325000000       -0.5842000000     
    O   -2.5467000000       -2.4213000000       -1.3441000000     
    N   -1.8805000000       -0.7452000000        0.0510000000     
    H   -1.1473000000       -0.3508000000        0.6392000000     
    C   -3.0560000000        0.0736000000       -0.1844000000     
    H   -3.3432000000       -0.0516000000       -1.2352000000     
    C   -4.2417000000       -0.3589000000        0.7010000000     
    H   -3.9854000000       -0.2492000000        1.7597000000     
    H   -5.1334000000        0.2442000000        0.4948000000     
    H   -4.4761000000       -1.4070000000        0.4962000000     
    C   -2.6730000000        1.5352000000        0.0915000000     
    O   -1.7382000000        1.8269000000        0.8302000000     
    N   -3.4726000000        2.4575000000       -0.5136000000     
    H   -4.1974000000        2.1313000000       -1.1369000000     
    C   -3.3085000000        3.8887000000       -0.3249000000     
    H   -2.4821000000        4.0319000000        0.3722000000     
    H   -3.0693000000        4.3878000000       -1.2711000000     
    H   -4.2159000000        4.3390000000        0.0941000000     

15 17 19 25  F
17 19 25 27  F
