%chk=structure_90.chk
%NProcShared=8
#SP MP2/aug-cc-pVDZ 

Phi Psi fixed scan

0   1
    H    6.8112000000       -1.8173000000       -0.8217000000     
    C    5.8038000000       -1.7593000000       -1.2460000000     
    H    5.5934000000       -2.7238000000       -1.7181000000     
    H    5.7838000000       -0.9751000000       -2.0089000000     
    C    4.8068000000       -1.5384000000       -0.1176000000     
    O    4.6783000000       -2.3389000000        0.8054000000     
    N    4.0766000000       -0.3915000000       -0.1967000000     
    H    4.1226000000        0.2278000000       -0.9980000000     
    C    3.0381000000       -0.0734000000        0.7617000000     
    H    2.5005000000       -0.9997000000        1.0029000000     
    C    3.6161000000        0.5087000000        2.0667000000     
    H    4.1543000000        1.4404000000        1.8633000000     
    H    2.8266000000        0.7161000000        2.7979000000     
    H    4.3092000000       -0.2175000000        2.4988000000     
    C    2.0873000000        0.9270000000        0.0715000000     
    O    2.4381000000        1.5426000000       -0.9286000000     
    N    0.8894000000        1.0769000000        0.7081000000     
    H    0.6985000000        0.4193000000        1.4524000000     
    C   -0.2536000000        1.9134000000        0.3040000000     
    H   -0.7830000000        2.1382000000        1.2394000000     
    C    0.1314000000        3.2311000000       -0.3655000000     
    H    0.5462000000        3.0537000000       -1.3558000000     
    H   -0.7664000000        3.8522000000       -0.4583000000     
    H    0.8663000000        3.7685000000        0.2404000000     
    C   -1.1938000000        1.0809000000       -0.6023000000     
    O   -1.0422000000        1.0038000000       -1.8157000000     
    N   -2.1653000000        0.4007000000        0.0667000000     
    H   -2.3737000000        0.5681000000        1.0460000000     
    C   -3.1489000000       -0.4134000000       -0.6233000000     
    H   -3.4479000000        0.1113000000       -1.5400000000     
    C   -2.5819000000       -1.7924000000       -1.0118000000     
    H   -2.2875000000       -2.3516000000       -0.1177000000     
    H   -3.3173000000       -2.3866000000       -1.5659000000     
    H   -1.7058000000       -1.6477000000       -1.6487000000     
    C   -4.3556000000       -0.5397000000        0.3233000000     
    O   -4.2691000000       -0.2360000000        1.5118000000     
    N   -5.4885000000       -1.0238000000       -0.2478000000     
    H   -5.4802000000       -1.2232000000       -1.2381000000     
    C   -6.7167000000       -1.2519000000        0.4964000000     
    H   -6.5260000000       -0.9794000000        1.5348000000     
    H   -7.5329000000       -0.6329000000        0.1070000000     
    H   -7.0153000000       -2.3052000000        0.4490000000     

15 17 19 25  F
17 19 25 27  F
