%chk=structure_0.chk
%NProcShared=8
#SP MP2/aug-cc-pVDZ 

Phi Psi fixed scan

0   1
    H   -3.9319000000       -3.6065000000        1.3939000000     
    C   -4.3888000000       -2.6133000000        1.4507000000     
    H   -4.1102000000       -2.1479000000        2.4011000000     
    H   -5.4738000000       -2.7516000000        1.4241000000     
    C   -3.9663000000       -1.8091000000        0.2302000000     
    O   -4.2530000000       -2.1562000000       -0.9123000000     
    N   -3.2491000000       -0.6799000000        0.4905000000     
    H   -2.9580000000       -0.4261000000        1.4273000000     
    C   -2.7070000000        0.1454000000       -0.5692000000     
    H   -2.3172000000       -0.5151000000       -1.3546000000     
    C   -3.7779000000        1.0642000000       -1.1919000000     
    H   -4.1830000000        1.7462000000       -0.4371000000     
    H   -3.3666000000        1.6598000000       -2.0151000000     
    H   -4.5864000000        0.4425000000       -1.5838000000     
    C   -1.5610000000        0.9688000000        0.0437000000     
    O   -1.4549000000        1.1138000000        1.2576000000     
    N   -0.6968000000        1.5085000000       -0.8670000000     
    H   -0.8942000000        1.3172000000       -1.8400000000     
    C    0.3049000000        2.5528000000       -0.6004000000     
    H    0.4944000000        3.0190000000       -1.5750000000     
    C   -0.1647000000        3.6595000000        0.3529000000     
    H   -0.3855000000        3.2592000000        1.3427000000     
    H    0.6335000000        4.4005000000        0.4319000000     
    H   -1.0652000000        4.1408000000       -0.0422000000     
    C    1.6881000000        2.0112000000       -0.1710000000     
    O    2.6089000000        2.7959000000        0.0470000000     
    N    1.8161000000        0.6684000000       -0.0913000000     
    H    1.0430000000        0.0474000000       -0.2987000000     
    C    3.0683000000        0.0282000000        0.2575000000     
    H    3.8779000000        0.5551000000       -0.2632000000     
    C    3.3415000000        0.0840000000        1.7738000000     
    H    2.5537000000       -0.4416000000        2.3228000000     
    H    4.3058000000       -0.3736000000        2.0230000000     
    H    3.3606000000        1.1295000000        2.0909000000     
    C    2.9766000000       -1.4234000000       -0.2426000000     
    O    1.8953000000       -1.9383000000       -0.5170000000     
    N    4.1644000000       -2.0796000000       -0.3245000000     
    H    5.0097000000       -1.5726000000       -0.1033000000     
    C    4.2728000000       -3.4738000000       -0.7217000000     
    H    3.2627000000       -3.8393000000       -0.9093000000     
    H    4.8677000000       -3.5779000000       -1.6363000000     
    H    4.7322000000       -4.0749000000        0.0713000000     

15 17 19 25  F
17 19 25 27  F
