%chk=structure_210.chk
%NProcShared=8
#SP MP2/aug-cc-pVDZ

Single Point calculation at MP2

0   1
    H   -4.0203000000       -0.7414000000        0.7654000000     
    C   -3.1439000000       -1.1226000000        0.2378000000     
    H   -3.4222000000       -1.4003000000       -0.7838000000     
    H   -2.7998000000       -2.0246000000        0.7581000000     
    C   -2.0462000000       -0.0664000000        0.2892000000     
    O   -1.9530000000        0.7225000000        1.2207000000     
    N   -1.2008000000       -0.0863000000       -0.7961000000     
    H   -1.1985000000       -0.9496000000       -1.3251000000     
    C    0.0823000000        0.6148000000       -0.8728000000     
    H    0.2978000000        0.6918000000       -1.9485000000     
    C    0.0595000000        2.0444000000       -0.3219000000     
    H   -0.0203000000        2.0709000000        0.7647000000     
    H    0.9588000000        2.5790000000       -0.6517000000     
    H   -0.8045000000        2.5797000000       -0.7249000000     
    C    1.1908000000       -0.3342000000       -0.3474000000     
    O    1.1006000000       -1.5410000000       -0.5527000000     
    N    2.2686000000        0.2465000000        0.2465000000     
    H    2.2137000000        1.2232000000        0.4936000000     
    C    3.3820000000       -0.5326000000        0.7636000000     
    H    3.3216000000       -1.5280000000        0.3224000000     
    H    4.3336000000       -0.0665000000        0.4871000000     
    H    3.3370000000       -0.6282000000        1.8557000000     

