%chk=structure_135.chk
%NProcShared=8
#SP MP2/aug-cc-pVDZ

Single Point calculation at MP2

0   1
    H    4.0594000000       -1.1239000000       -0.0826000000     
    C    3.0586000000       -1.3451000000        0.2919000000     
    H    3.1115000000       -1.5721000000        1.3624000000     
    H    2.6848000000       -2.2345000000       -0.2296000000     
    C    2.1479000000       -0.1625000000       -0.0228000000     
    O    2.3834000000        0.6044000000       -0.9424000000     
    N    1.0747000000       -0.0497000000        0.8383000000     
    H    0.9466000000       -0.8388000000        1.4588000000     
    C   -0.1422000000        0.7291000000        0.6263000000     
    H   -0.5133000000        0.9789000000        1.6314000000     
    C    0.0567000000        2.0470000000       -0.1363000000     
    H    0.3439000000        1.8636000000       -1.1701000000     
    H   -0.8825000000        2.6121000000       -0.1103000000     
    H    0.8391000000        2.6471000000        0.3356000000     
    C   -1.2064000000       -0.1440000000       -0.0810000000     
    O   -0.9269000000       -0.8710000000       -1.0236000000     
    N   -2.4627000000       -0.0488000000        0.4522000000     
    H   -2.6216000000        0.6141000000        1.1978000000     
    C   -3.6147000000       -0.7044000000       -0.1432000000     
    H   -3.2383000000       -1.4131000000       -0.8823000000     
    H   -4.1886000000       -1.2442000000        0.6178000000     
    H   -4.2769000000        0.0127000000       -0.6446000000     

