%chk=structure_315.chk
%NProcShared=8
#SP MP2/aug-cc-pVDZ

Single Point calculation at MP2

0   1
    H   -3.4753000000       -1.7086000000       -0.4044000000     
    C   -3.2266000000       -0.6622000000       -0.5945000000     
    H   -3.9766000000       -0.0445000000       -0.0868000000     
    H   -3.2870000000       -0.4634000000       -1.6693000000     
    C   -1.8587000000       -0.3666000000       -0.0001000000     
    O   -1.5021000000       -0.8584000000        1.0722000000     
    N   -1.0486000000        0.4431000000       -0.7411000000     
    H   -1.4311000000        0.7889000000       -1.6100000000     
    C    0.1212000000        1.1878000000       -0.2344000000     
    H    0.2711000000        2.0043000000       -0.9452000000     
    C   -0.0737000000        1.8006000000        1.1604000000     
    H   -0.2254000000        1.0333000000        1.9204000000     
    H    0.8170000000        2.3852000000        1.4110000000     
    H   -0.9401000000        2.4711000000        1.1632000000     
    C    1.4392000000        0.3855000000       -0.3243000000     
    O    2.4635000000        0.9223000000       -0.7337000000     
    N    1.3526000000       -0.9051000000        0.0934000000     
    H    0.4859000000       -1.1951000000        0.5398000000     
    C    2.5133000000       -1.7739000000        0.1593000000     
    H    3.3134000000       -1.3073000000       -0.4173000000     
    H    2.8590000000       -1.9125000000        1.1921000000     
    H    2.2820000000       -2.7563000000       -0.2668000000     

