%chk=structure_60.chk
%NProcShared=8
#SP MP2/aug-cc-pVDZ

Single Point calculation at MP2

0   1
    H   -3.5151000000       -1.5477000000        0.8539000000     
    C   -3.2683000000       -0.5954000000        0.3834000000     
    H   -3.5197000000        0.2241000000        1.0656000000     
    H   -3.8796000000       -0.4856000000       -0.5204000000     
    C   -1.7872000000       -0.6112000000        0.0171000000     
    O   -1.1585000000       -1.6684000000       -0.0083000000     
    N   -1.2929000000        0.6101000000       -0.3405000000     
    H   -1.9631000000        1.3628000000       -0.2503000000     
    C    0.0841000000        1.1338000000       -0.5283000000     
    H    0.2647000000        1.1804000000       -1.6132000000     
    C    0.1229000000        2.5579000000        0.0282000000     
    H   -0.0052000000        2.5540000000        1.1143000000     
    H    1.0864000000        3.0197000000       -0.1907000000     
    H   -0.6669000000        3.1680000000       -0.4283000000     
    C    1.2912000000        0.3165000000        0.0324000000     
    O    2.1203000000        0.8861000000        0.7357000000     
    N    1.4592000000       -0.9431000000       -0.4461000000     
    H    0.5916000000       -1.4428000000       -0.6413000000     
    C    2.5790000000       -1.7379000000        0.0388000000     
    H    3.5015000000       -1.1616000000       -0.0577000000     
    H    2.4642000000       -2.0200000000        1.0938000000     
    H    2.6531000000       -2.6443000000       -0.5673000000     

