%chk=structure_345.chk
%NProcShared=8
#SP MP2/aug-cc-pVDZ

Single Point calculation at MP2

0   1
    H   -3.6243000000       -1.7061000000        0.3255000000     
    C   -3.1095000000       -1.1860000000       -0.4848000000     
    H   -3.8532000000       -0.5870000000       -1.0236000000     
    H   -2.6928000000       -1.9214000000       -1.1815000000     
    C   -2.0631000000       -0.2547000000        0.1227000000     
    O   -2.2428000000        0.2922000000        1.1990000000     
    N   -0.9274000000       -0.1105000000       -0.6488000000     
    H   -0.9542000000       -0.5867000000       -1.5409000000     
    C    0.1341000000        0.9064000000       -0.5542000000     
    H    0.2269000000        1.3527000000       -1.5524000000     
    C   -0.1275000000        2.0534000000        0.4315000000     
    H   -0.1971000000        1.6999000000        1.4601000000     
    H    0.7086000000        2.7518000000        0.3406000000     
    H   -1.0583000000        2.5719000000        0.1890000000     
    C    1.5305000000        0.3003000000       -0.2831000000     
    O    2.5334000000        0.9832000000       -0.4584000000     
    N    1.5485000000       -0.9923000000        0.1385000000     
    H    0.6556000000       -1.4304000000        0.3171000000     
    C    2.7737000000       -1.6719000000        0.5163000000     
    H    3.6080000000       -1.0520000000        0.1847000000     
    H    2.8424000000       -1.8063000000        1.6031000000     
    H    2.8366000000       -2.6542000000        0.0350000000     

