%chk=structure_315.chk
%NProcShared=8
#SP MP2/aug-cc-pVDZ

Single Point calculation at MP2

0   1
    H   -3.6121000000       -1.7320000000        0.0331000000     
    C   -3.1401000000       -1.0398000000       -0.6673000000     
    H   -3.9084000000       -0.3381000000       -1.0128000000     
    H   -2.7702000000       -1.5967000000       -1.5346000000     
    C   -2.0539000000       -0.2640000000        0.0723000000     
    O   -2.1749000000        0.0396000000        1.2512000000     
    N   -0.9560000000        0.0406000000       -0.6977000000     
    H   -0.9923000000       -0.2772000000       -1.6569000000     
    C    0.1318000000        0.9960000000       -0.4336000000     
    H    0.1989000000        1.6472000000       -1.3125000000     
    C   -0.0500000000        1.8948000000        0.7969000000     
    H   -0.0650000000        1.3267000000        1.7267000000     
    H    0.7886000000        2.5984000000        0.8140000000     
    H   -0.9831000000        2.4599000000        0.7330000000     
    C    1.5073000000        0.2946000000       -0.3866000000     
    O    2.4880000000        0.8015000000       -0.9189000000     
    N    1.5368000000       -0.8620000000        0.3313000000     
    H    0.6661000000       -1.1991000000        0.7181000000     
    C    2.7530000000       -1.6222000000        0.5508000000     
    H    3.5651000000       -1.0862000000        0.0572000000     
    H    2.9774000000       -1.7084000000        1.6206000000     
    H    2.6767000000       -2.6301000000        0.1250000000     

