%chk=structure_300.chk
%NProcShared=8
#SP MP2/aug-cc-pVDZ

Single Point calculation at MP2

0   1
    H   -3.6122000000       -1.7393000000       -0.1045000000     
    C   -3.1554000000       -0.9730000000       -0.7340000000     
    H   -3.9271000000       -0.2319000000       -0.9735000000     
    H   -2.8148000000       -1.4274000000       -1.6703000000     
    C   -2.0405000000       -0.2948000000        0.0556000000     
    O   -2.1178000000       -0.1360000000        1.2676000000     
    N   -0.9643000000        0.0935000000       -0.7027000000     
    H   -1.0247000000       -0.1080000000       -1.6917000000     
    C    0.1183000000        1.0313000000       -0.3576000000     
    H    0.1741000000        1.7545000000       -1.1786000000     
    C   -0.0622000000        1.8192000000        0.9452000000     
    H   -0.0705000000        1.1817000000        1.8284000000     
    H    0.7690000000        2.5288000000        1.0200000000     
    H   -0.9995000000        2.3815000000        0.9316000000     
    C    1.4843000000        0.3110000000       -0.4145000000     
    O    2.3832000000        0.7029000000       -1.1493000000     
    N    1.5978000000       -0.7461000000        0.4384000000     
    H    0.7764000000       -1.0232000000        0.9595000000     
    C    2.7954000000       -1.5605000000        0.5296000000     
    H    3.5586000000       -1.0881000000       -0.0906000000     
    H    3.1537000000       -1.6149000000        1.5640000000     
    H    2.6192000000       -2.5800000000        0.1641000000     

