%chk=structure_165.chk
%NProcShared=8
#SP MP2/aug-cc-pVDZ

Single Point calculation at MP2

0   1
    H    4.2256000000       -0.6067000000       -0.4443000000     
    C    3.3227000000       -1.1268000000       -0.1092000000     
    H    3.5913000000       -1.7041000000        0.7809000000     
    H    2.9952000000       -1.8124000000       -0.8965000000     
    C    2.2754000000       -0.0931000000        0.2756000000     
    O    2.4812000000        0.7489000000        1.1437000000     
    N    1.1071000000       -0.1479000000       -0.4355000000     
    H    0.8774000000       -0.9777000000       -0.9720000000     
    C   -0.0475000000        0.6380000000       -0.0421000000     
    H    0.1188000000        0.9631000000        0.9918000000     
    C   -0.2191000000        1.8849000000       -0.9307000000     
    H   -0.3718000000        1.5947000000       -1.9756000000     
    H   -1.0740000000        2.4928000000       -0.6128000000     
    H    0.6843000000        2.4977000000       -0.8657000000     
    C   -1.2807000000       -0.2796000000       -0.1168000000     
    O   -1.2562000000       -1.3368000000       -0.7428000000     
    N   -2.3888000000        0.1919000000        0.5158000000     
    H   -2.3081000000        1.0437000000        1.0529000000     
    C   -3.6569000000       -0.5183000000        0.5255000000     
    H   -3.5481000000       -1.3896000000       -0.1211000000     
    H   -3.9175000000       -0.8542000000        1.5362000000     
    H   -4.4640000000        0.1171000000        0.1437000000     

