%chk=structure_270.chk
%NProcShared=8
#SP MP2/aug-cc-pVDZ

Single Point calculation at MP2

0   1
    H    4.0619000000       -0.7827000000       -1.0161000000     
    C    3.1121000000       -1.2429000000       -0.7317000000     
    H    3.3365000000       -2.0609000000       -0.0386000000     
    H    2.6332000000       -1.6613000000       -1.6229000000     
    C    2.2628000000       -0.2078000000       -0.0089000000     
    O    2.7170000000        0.5108000000        0.8715000000     
    N    0.9532000000       -0.1387000000       -0.4108000000     
    H    0.6153000000       -0.7905000000       -1.1047000000     
    C   -0.0205000000        0.7047000000        0.2832000000     
    H    0.3819000000        0.8628000000        1.2861000000     
    C   -0.1837000000        2.0683000000       -0.4032000000     
    H   -0.4596000000        1.9724000000       -1.4615000000     
    H   -0.9385000000        2.6803000000        0.1040000000     
    H    0.7713000000        2.5999000000       -0.3649000000     
    C   -1.3125000000       -0.1141000000        0.4806000000     
    O   -1.4583000000       -0.8482000000        1.4478000000     
    N   -2.2311000000       -0.0216000000       -0.5317000000     
    H   -2.1118000000        0.7026000000       -1.2248000000     
    C   -3.5104000000       -0.7106000000       -0.4777000000     
    H   -3.4311000000       -1.4917000000        0.2792000000     
    H   -4.3272000000       -0.0325000000       -0.1989000000     
    H   -3.7421000000       -1.1627000000       -1.4478000000     

