%chk=structure_75.chk
%NProcShared=8
#SP MP2/aug-cc-pVDZ

Single Point calculation at MP2

0   1
    H    3.4911000000       -1.8659000000       -0.6445000000     
    C    3.1331000000       -0.8731000000       -0.9290000000     
    H    2.7637000000       -0.9035000000       -1.9589000000     
    H    3.9890000000       -0.1906000000       -0.8832000000     
    C    2.0890000000       -0.4214000000        0.0808000000     
    O    2.2538000000       -0.5481000000        1.2882000000     
    N    0.9484000000        0.1211000000       -0.4566000000     
    H    0.9188000000        0.2978000000       -1.4524000000     
    C   -0.0533000000        0.8019000000        0.3659000000     
    H    0.1564000000        0.4762000000        1.3890000000     
    C    0.0536000000        2.3237000000        0.2708000000     
    H   -0.1536000000        2.6644000000       -0.7480000000     
    H   -0.6791000000        2.8003000000        0.9296000000     
    H    1.0561000000        2.6468000000        0.5673000000     
    C   -1.4537000000        0.3123000000       -0.0611000000     
    O   -2.2051000000        0.9946000000       -0.7483000000     
    N   -1.7585000000       -0.9432000000        0.3759000000     
    H   -1.0501000000       -1.4525000000        0.8863000000     
    C   -2.9846000000       -1.6286000000        0.0102000000     
    H   -3.6218000000       -0.9059000000       -0.5013000000     
    H   -2.7908000000       -2.4726000000       -0.6640000000     
    H   -3.5032000000       -2.0011000000        0.9006000000     

