%chk=structure_60.chk
%NProcShared=8
#SP MP2/aug-cc-pVDZ

Single Point calculation at MP2

0   1
    H   -3.8287000000       -1.7235000000        0.1809000000     
    C   -2.9930000000       -1.3317000000        0.7645000000     
    H   -2.4028000000       -2.1640000000        1.1616000000     
    H   -3.4095000000       -0.7692000000        1.6087000000     
    C   -2.1822000000       -0.3897000000       -0.1148000000     
    O   -2.6955000000        0.3063000000       -0.9788000000     
    N   -0.8218000000       -0.4004000000        0.1170000000     
    H   -0.5304000000       -0.8228000000        0.9912000000     
    C    0.0439000000        0.6915000000       -0.3697000000     
    H   -0.0165000000        0.6792000000       -1.4645000000     
    C   -0.3688000000        2.0724000000        0.1433000000     
    H   -0.2985000000        2.1146000000        1.2341000000     
    H    0.3025000000        2.8360000000       -0.2597000000     
    H   -1.3908000000        2.2911000000       -0.1713000000     
    C    1.4910000000        0.3629000000        0.0600000000     
    O    2.1516000000        1.1030000000        0.7763000000     
    N    1.9607000000       -0.8169000000       -0.4442000000     
    H    1.3279000000       -1.3785000000       -0.9974000000     
    C    3.2936000000       -1.3216000000       -0.1670000000     
    H    3.8113000000       -0.5662000000        0.4256000000     
    H    3.2590000000       -2.2599000000        0.4003000000     
    H    3.8494000000       -1.4927000000       -1.0961000000     

