%chk=structure_300.chk
%NProcShared=8
#SP MP2/aug-cc-pVDZ

Single Point calculation at MP2

0   1
    H    3.7288000000       -1.5617000000       -0.7376000000     
    C    3.0212000000       -1.5409000000        0.0954000000     
    H    3.6054000000       -1.5676000000        1.0216000000     
    H    2.3896000000       -2.4340000000        0.0520000000     
    C    2.2440000000       -0.2309000000        0.0386000000     
    O    2.8056000000        0.8430000000       -0.1314000000     
    N    0.8866000000       -0.3562000000        0.1992000000     
    H    0.5373000000       -1.2546000000        0.5031000000     
    C   -0.0380000000        0.7823000000        0.3099000000     
    H    0.1700000000        1.3394000000        1.2299000000     
    C    0.0496000000        1.7470000000       -0.8846000000     
    H   -0.1182000000        1.2269000000       -1.8346000000     
    H   -0.7121000000        2.5268000000       -0.7780000000     
    H    1.0371000000        2.2068000000       -0.9172000000     
    C   -1.4680000000        0.2354000000        0.4786000000     
    O   -2.1534000000        0.5093000000        1.4546000000     
    N   -1.9051000000       -0.5471000000       -0.5545000000     
    H   -1.2893000000       -0.6828000000       -1.3439000000     
    C   -3.2496000000       -1.0939000000       -0.6126000000     
    H   -3.7340000000       -0.8679000000        0.3382000000     
    H   -3.8308000000       -0.6403000000       -1.4248000000     
    H   -3.2268000000       -2.1798000000       -0.7588000000     

