%chk=structure_45.chk
%NProcShared=8
#SP MP2/aug-cc-pVDZ

Single Point calculation at MP2

0   1
    H   -3.8457000000       -1.6904000000        0.1263000000     
    C   -2.9802000000       -1.3626000000        0.7057000000     
    H   -2.3938000000       -2.2349000000        1.0125000000     
    H   -3.3511000000       -0.8616000000        1.6080000000     
    C   -2.1811000000       -0.3706000000       -0.1280000000     
    O   -2.7061000000        0.3831000000       -0.9336000000     
    N   -0.8144000000       -0.4062000000        0.0739000000     
    H   -0.5155000000       -0.8758000000        0.9216000000     
    C    0.0449000000        0.7191000000       -0.3419000000     
    H   -0.0352000000        0.7912000000       -1.4337000000     
    C   -0.3594000000        2.0589000000        0.2786000000     
    H   -0.2943000000        2.0141000000        1.3707000000     
    H    0.3204000000        2.8445000000       -0.0599000000     
    H   -1.3797000000        2.3090000000       -0.0172000000     
    C    1.5073000000        0.3776000000        0.0177000000     
    O    2.2613000000        1.1902000000        0.5349000000     
    N    1.8821000000       -0.8951000000       -0.3127000000     
    H    1.2004000000       -1.4792000000       -0.7777000000     
    C    3.2372000000       -1.3869000000       -0.1374000000     
    H    3.7933000000       -0.6251000000        0.4104000000     
    H    3.2451000000       -2.3221000000        0.4342000000     
    H    3.7285000000       -1.5602000000       -1.1028000000     

