%chk=structure_270.chk
%NProcShared=8
#SP MP2/aug-cc-pVDZ

Single Point calculation at MP2

0   1
    H    3.7479000000       -1.1601000000       -1.2895000000     
    C    3.0669000000       -1.4280000000       -0.4774000000     
    H    3.6806000000       -1.7320000000        0.3776000000     
    H    2.4518000000       -2.2775000000       -0.7903000000     
    C    2.2615000000       -0.1925000000       -0.0924000000     
    O    2.7977000000        0.8945000000        0.0809000000     
    N    0.9116000000       -0.4048000000        0.0366000000     
    H    0.6068000000       -1.3672000000        0.1025000000     
    C   -0.0349000000        0.5940000000        0.5589000000     
    H    0.1661000000        0.7714000000        1.6226000000     
    C    0.0442000000        1.9300000000       -0.1920000000     
    H   -0.0240000000        1.7888000000       -1.2779000000     
    H   -0.7682000000        2.5896000000        0.1321000000     
    H    1.0016000000        2.4102000000        0.0072000000     
    C   -1.4228000000       -0.0826000000        0.5191000000     
    O   -1.7971000000       -0.7826000000        1.4546000000     
    N   -2.1397000000        0.0790000000       -0.6277000000     
    H   -1.7691000000        0.6790000000       -1.3494000000     
    C   -3.4436000000       -0.5287000000       -0.8287000000     
    H   -3.6758000000       -1.1059000000        0.0671000000     
    H   -4.2174000000        0.2338000000       -0.9766000000     
    H   -3.4370000000       -1.1978000000       -1.6973000000     

