%chk=structure_255.chk
%NProcShared=8
#SP MP2/aug-cc-pVDZ

Single Point calculation at MP2

0   1
    H    3.7738000000       -1.3433000000       -0.7715000000     
    C    3.4189000000       -0.4302000000       -0.2909000000     
    H    3.7546000000        0.4388000000       -0.8680000000     
    H    3.8697000000       -0.3705000000        0.7074000000     
    C    1.8998000000       -0.5063000000       -0.1624000000     
    O    1.3012000000       -1.5670000000       -0.1555000000     
    N    1.2830000000        0.7303000000       -0.1064000000     
    H    1.9261000000        1.5114000000       -0.0508000000     
    C   -0.0258000000        1.0624000000        0.4839000000     
    H    0.1063000000        1.2011000000        1.5659000000     
    C   -0.5063000000        2.3883000000       -0.1174000000     
    H   -0.6020000000        2.3293000000       -1.2078000000     
    H   -1.4694000000        2.6825000000        0.3091000000     
    H    0.2143000000        3.1864000000        0.1001000000     
    C   -1.0615000000       -0.0942000000        0.4377000000     
    O   -1.0952000000       -0.9270000000        1.3284000000     
    N   -2.0593000000        0.0246000000       -0.4946000000     
    H   -1.8738000000        0.5867000000       -1.3139000000     
    C   -3.0540000000       -1.0303000000       -0.6311000000     
    H   -3.3618000000       -1.3437000000        0.3674000000     
    H   -3.9186000000       -0.6402000000       -1.1753000000     
    H   -2.6590000000       -1.9086000000       -1.1578000000     

