%chk=structure_270.chk
%NProcShared=8
#SP MP2/aug-cc-pVDZ

Single Point calculation at MP2

0   1
    H    3.5827000000       -1.5118000000       -0.8185000000     
    C    3.3319000000       -0.5649000000       -0.3368000000     
    H    3.6860000000        0.2648000000       -0.9582000000     
    H    3.8600000000       -0.5238000000        0.6235000000     
    C    1.8283000000       -0.5279000000       -0.0869000000     
    O    1.1752000000       -1.5418000000        0.1003000000     
    N    1.2773000000        0.7339000000       -0.1237000000     
    H    1.9382000000        1.4976000000       -0.2002000000     
    C   -0.0158000000        1.1377000000        0.4517000000     
    H    0.1257000000        1.3478000000        1.5200000000     
    C   -0.4958000000        2.4179000000       -0.2402000000     
    H   -0.6226000000        2.2777000000       -1.3189000000     
    H   -1.4492000000        2.7476000000        0.1825000000     
    H    0.2330000000        3.2255000000       -0.0956000000     
    C   -1.0704000000       -0.0003000000        0.4771000000     
    O   -1.3030000000       -0.6035000000        1.5117000000     
    N   -1.8699000000       -0.1005000000       -0.6332000000     
    H   -1.4794000000        0.2320000000       -1.5057000000     
    C   -2.8244000000       -1.1976000000       -0.7296000000     
    H   -3.3747000000       -1.2614000000        0.2104000000     
    H   -3.5221000000       -0.9939000000       -1.5465000000     
    H   -2.3300000000       -2.1622000000       -0.9023000000     

