%chk=structure_180.chk
%NProcShared=8
#SP MP2/aug-cc-pVDZ

Single Point calculation at MP2

0   1
    H    3.7169000000       -1.3433000000       -0.4146000000     
    C    3.0519000000       -0.5479000000       -0.7545000000     
    H    2.6023000000       -0.8494000000       -1.7082000000     
    H    3.6316000000        0.3675000000       -0.9218000000     
    C    1.9448000000       -0.3566000000        0.2687000000     
    O    1.6672000000       -1.1889000000        1.1114000000     
    N    1.3264000000        0.9010000000        0.2338000000     
    H    1.6202000000        1.4312000000       -0.5813000000     
    C   -0.1153000000        1.0503000000        0.4447000000     
    H   -0.2953000000        1.1663000000        1.5238000000     
    C   -0.5795000000        2.3321000000       -0.2632000000     
    H   -0.4914000000        2.2257000000       -1.3510000000     
    H   -1.6229000000        2.5633000000       -0.0359000000     
    H    0.0361000000        3.1791000000        0.0583000000     
    C   -0.9406000000       -0.1803000000       -0.0211000000     
    O   -0.4713000000       -1.0869000000       -0.6909000000     
    N   -2.2929000000       -0.0419000000        0.1760000000     
    H   -2.5966000000        0.6066000000        0.8909000000     
    C   -3.2085000000       -1.1235000000       -0.1603000000     
    H   -2.8441000000       -1.6049000000       -1.0685000000     
    H   -3.2704000000       -1.8823000000        0.6308000000     
    H   -4.2056000000       -0.7116000000       -0.3404000000     

