%chk=structure_135.chk
%NProcShared=8
# b3lyp/6-31G* Opt=(ModRedundant, maxcycles=1000, calcfc) geom=nocrowd

Phi Psi fixed scan

0   1
    H    0.6872000000        3.6446000000       -1.7047000000     
    C    1.3383000000        3.4229000000       -0.8591000000     
    H    1.5370000000        2.3517000000       -0.8240000000     
    H    0.8517000000        3.7322000000        0.0658000000     
    C    2.6715000000        4.1636000000       -0.9815000000     
    O    2.8930000000        4.8943000000       -1.9446000000     
    N    3.5554000000        3.9697000000       -0.0000000000     
    H    3.3273000000        3.3591000000        0.7716000000     
    C    4.8533000000        4.6139000000       -0.0000000000     
    H    5.4076000000        4.3155000000        0.8898000000     
    C    5.6613000000        4.2208000000       -1.2322000000     
    H    5.1233000000        4.5214000000       -2.1312000000     
    H    6.6305000000        4.7189000000       -1.2058000000     
    H    5.8085000000        3.1409000000       -1.2414000000     
    C    4.7127000000        6.1294000000        0.0000000000     
    O    3.9095000000        6.6814000000       -0.7488000000     
    N    5.4979000000        6.8026000000        0.8441000000     
    H    6.1430000000        6.3041000000        1.4403000000     
    C    5.4589000000        8.2480000000        0.9387000000     
    H    4.7200000000        8.6386000000        0.2391000000     
    H    5.1871000000        8.5389000000        1.9534000000     
    H    6.4402000000        8.6552000000        0.6950000000     

5 7 9 15 F
7 9 15 17 F
