%chk=structure_30.chk
%NProcShared=8
#SP MP2/aug-cc-pVDZ 

Phi Psi fixed scan

0   1
    H   -3.3733000000       -3.9439000000        1.1451000000     
    C   -3.8375000000       -2.9831000000        1.3892000000     
    H   -3.4090000000       -2.6069000000        2.3232000000     
    H   -4.9066000000       -3.1657000000        1.5349000000     
    C   -3.6570000000       -2.0388000000        0.2099000000     
    O   -4.1032000000       -2.2939000000       -0.9053000000     
    N   -2.9709000000       -0.8916000000        0.4752000000     
    H   -2.5449000000       -0.7103000000        1.3766000000     
    C   -2.6552000000        0.0692000000       -0.5621000000     
    H   -2.3540000000       -0.4817000000       -1.4624000000     
    C   -3.8658000000        0.9572000000       -0.9157000000     
    H   -4.1861000000        1.5340000000       -0.0419000000     
    H   -3.6291000000        1.6562000000       -1.7263000000     
    H   -4.6867000000        0.3144000000       -1.2418000000     
    C   -1.4791000000        0.9143000000       -0.0470000000     
    O   -1.1674000000        0.9342000000        1.1407000000     
    N   -0.8243000000        1.6415000000       -0.9976000000     
    H   -1.1799000000        1.6112000000       -1.9433000000     
    C    0.2025000000        2.6446000000       -0.6837000000     
    H    0.5951000000        2.9691000000       -1.6558000000     
    C   -0.3635000000        3.8625000000        0.0537000000     
    H   -0.8068000000        3.5561000000        1.0041000000     
    H    0.4412000000        4.5698000000        0.2629000000     
    H   -1.1283000000        4.3525000000       -0.5580000000     
    C    1.4169000000        2.0544000000        0.0749000000     
    O    2.1103000000        2.7645000000        0.7965000000     
    N    1.7054000000        0.7590000000       -0.1926000000     
    H    1.0928000000        0.1826000000       -0.7568000000     
    C    2.8027000000        0.0613000000        0.4464000000     
    H    3.6875000000        0.7087000000        0.4115000000     
    C    2.4944000000       -0.2792000000        1.9187000000     
    H    1.6096000000       -0.9203000000        1.9810000000     
    H    3.3379000000       -0.7950000000        2.3916000000     
    H    2.2976000000        0.6467000000        2.4640000000     
    C    3.0462000000       -1.2169000000       -0.3715000000     
    O    2.1693000000       -1.6942000000       -1.0879000000     
    N    4.2734000000       -1.7797000000       -0.2083000000     
    H    4.9427000000       -1.3082000000        0.3836000000     
    C    4.6613000000       -3.0301000000       -0.8395000000     
    H    3.8113000000       -3.3761000000       -1.4285000000     
    H    5.5224000000       -2.8863000000       -1.5021000000     
    H    4.9130000000       -3.7895000000       -0.0901000000     

15 17 19 25  F
17 19 25 27  F
