%chk=structure_300.chk
%NProcShared=8
#SP MP2/aug-cc-pVDZ 

Phi Psi fixed scan

0   1
    H   -3.5220000000        3.7857000000        0.5659000000     
    C   -3.7031000000        3.0912000000       -0.2601000000     
    H   -2.9356000000        3.2371000000       -1.0261000000     
    H   -4.6815000000        3.3383000000       -0.6844000000     
    C   -3.7512000000        1.6754000000        0.2940000000     
    O   -4.5227000000        1.3503000000        1.1927000000     
    N   -2.8875000000        0.7903000000       -0.2788000000     
    H   -2.2059000000        1.0706000000       -0.9744000000     
    C   -2.7815000000       -0.5790000000        0.1853000000     
    H   -2.8726000000       -0.5737000000        1.2788000000     
    C   -3.8935000000       -1.4777000000       -0.3922000000     
    H   -3.8287000000       -1.5092000000       -1.4846000000     
    H   -3.8179000000       -2.5010000000       -0.0077000000     
    H   -4.8629000000       -1.0652000000       -0.1019000000     
    C   -1.3929000000       -1.0867000000       -0.2307000000     
    O   -0.7882000000       -0.5623000000       -1.1692000000     
    N   -0.9410000000       -2.1719000000        0.4478000000     
    H   -1.4595000000       -2.4195000000        1.2804000000     
    C    0.3956000000       -2.7900000000        0.3308000000     
    H    0.4264000000       -3.5556000000        1.1077000000     
    C    0.5857000000       -3.4597000000       -1.0402000000     
    H    0.5340000000       -2.7242000000       -1.8459000000     
    H    1.5610000000       -3.9560000000       -1.0770000000     
    H   -0.1937000000       -4.2114000000       -1.2024000000     
    C    1.6050000000       -1.8834000000        0.6787000000     
    O    2.3909000000       -2.2605000000        1.5486000000     
    N    1.7895000000       -0.7529000000       -0.0427000000     
    H    1.0821000000       -0.4283000000       -0.7027000000     
    C    2.9212000000        0.1162000000        0.2317000000     
    H    3.1272000000        0.0629000000        1.3071000000     
    C    4.1841000000       -0.3358000000       -0.5285000000     
    H    4.0095000000       -0.3041000000       -1.6089000000     
    H    5.0397000000        0.3084000000       -0.2956000000     
    H    4.4306000000       -1.3598000000       -0.2354000000     
    C    2.5317000000        1.5477000000       -0.1641000000     
    O    1.6631000000        1.7752000000       -0.9994000000     
    N    3.2553000000        2.5229000000        0.4556000000     
    H    3.9236000000        2.2511000000        1.1625000000     
    C    3.0825000000        3.9363000000        0.1680000000     
    H    2.3335000000        4.0181000000       -0.6206000000     
    H    2.7319000000        4.4815000000        1.0523000000     
    H    4.0204000000        4.3869000000       -0.1771000000     

15 17 19 25  F
17 19 25 27  F
