%chk=structure_60.chk
%NProcShared=8
#SP MP2/aug-cc-pVDZ 

Phi Psi fixed scan

0   1
    H   -5.5380000000       -2.8983000000        1.3507000000     
    C   -4.4481000000       -2.8109000000        1.3070000000     
    H   -4.0466000000       -3.8184000000        1.1585000000     
    H   -4.0832000000       -2.4181000000        2.2609000000     
    C   -4.0722000000       -1.9518000000        0.1088000000     
    O   -4.4186000000       -2.2375000000       -1.0343000000     
    N   -3.3303000000       -0.8440000000        0.3903000000     
    H   -2.9819000000       -0.6463000000        1.3212000000     
    C   -2.8350000000        0.0327000000       -0.6513000000     
    H   -2.4939000000       -0.5864000000       -1.4910000000     
    C   -3.9278000000        0.9916000000       -1.1661000000     
    H   -4.2824000000        1.6390000000       -0.3574000000     
    H   -3.5587000000        1.6242000000       -1.9820000000     
    H   -4.7640000000        0.3975000000       -1.5424000000     
    C   -1.6466000000        0.8062000000       -0.0558000000     
    O   -1.4490000000        0.8546000000        1.1545000000     
    N   -0.8363000000        1.4185000000       -0.9657000000     
    H   -1.1293000000        1.3992000000       -1.9335000000     
    C    0.1960000000        2.4028000000       -0.5991000000     
    H    0.7226000000        2.6272000000       -1.5342000000     
    C   -0.3892000000        3.6897000000       -0.0164000000     
    H   -0.9104000000        3.4770000000        0.9189000000     
    H    0.4111000000        4.4024000000        0.1988000000     
    H   -1.0867000000        4.1424000000       -0.7294000000     
    C    1.2444000000        1.7819000000        0.3608000000     
    O    1.5349000000        2.2942000000        1.4337000000     
    N    1.9065000000        0.7131000000       -0.1574000000     
    H    1.5890000000        0.2526000000       -1.0034000000     
    C    2.8924000000       -0.0296000000        0.6049000000     
    H    3.5931000000        0.6906000000        1.0444000000     
    C    2.2581000000       -0.8611000000        1.7387000000     
    H    1.5758000000       -1.6101000000        1.3237000000     
    H    3.0258000000       -1.3773000000        2.3265000000     
    H    1.6968000000       -0.1961000000        2.3990000000     
    C    3.6183000000       -0.9430000000       -0.3946000000     
    O    3.0817000000       -1.2914000000       -1.4439000000     
    N    4.8547000000       -1.3555000000       -0.0078000000     
    H    5.2310000000       -0.9967000000        0.8584000000     
    C    5.6606000000       -2.2809000000       -0.7867000000     
    H    5.0791000000       -2.5596000000       -1.6661000000     
    H    6.5975000000       -1.8128000000       -1.1100000000     
    H    5.8948000000       -3.1820000000       -0.2085000000     

15 17 19 25  F
17 19 25 27  F
