%chk=structure_180.chk
%NProcShared=8
#SP MP2/aug-cc-pVDZ 

Phi Psi fixed scan

0   1
    H    5.0052000000       -3.5657000000       -0.4666000000     
    C    5.2103000000       -2.6275000000       -0.9923000000     
    H    4.6615000000       -2.6227000000       -1.9390000000     
    H    6.2840000000       -2.5993000000       -1.2012000000     
    C    4.8572000000       -1.4652000000       -0.0752000000     
    O    5.4163000000       -1.2963000000        1.0055000000     
    N    3.8890000000       -0.6265000000       -0.5378000000     
    H    3.3496000000       -0.8350000000       -1.3705000000     
    C    3.3618000000        0.4550000000        0.2704000000     
    H    3.2381000000        0.0905000000        1.2990000000     
    C    4.3068000000        1.6724000000        0.2918000000     
    H    4.4393000000        2.0715000000       -0.7193000000     
    H    3.9174000000        2.4718000000        0.9317000000     
    H    5.2770000000        1.3545000000        0.6809000000     
    C    1.9811000000        0.8116000000       -0.3061000000     
    O    1.6020000000        0.3679000000       -1.3843000000     
    N    1.2653000000        1.7186000000        0.4351000000     
    H    1.5704000000        1.7985000000        1.3972000000     
    C   -0.1739000000        1.8857000000        0.2484000000     
    H   -0.4925000000        2.5853000000        1.0318000000     
    C   -0.5193000000        2.5131000000       -1.1126000000     
    H   -0.2970000000        1.8211000000       -1.9254000000     
    H   -1.5757000000        2.7981000000       -1.1598000000     
    H    0.0760000000        3.4203000000       -1.2534000000     
    C   -0.9069000000        0.5460000000        0.5374000000     
    O   -0.3135000000       -0.4432000000        0.9533000000     
    N   -2.2569000000        0.5865000000        0.3936000000     
    H   -2.7371000000        1.3669000000       -0.0415000000     
    C   -3.0859000000       -0.5889000000        0.5921000000     
    H   -2.5595000000       -1.4578000000        0.1772000000     
    C   -3.3646000000       -0.8508000000        2.0847000000     
    H   -3.9019000000       -0.0059000000        2.5276000000     
    H   -3.9646000000       -1.7567000000        2.2268000000     
    H   -2.4123000000       -0.9822000000        2.6043000000     
    C   -4.3879000000       -0.3441000000       -0.1906000000     
    O   -4.6952000000        0.7796000000       -0.5835000000     
    N   -5.1609000000       -1.4446000000       -0.3818000000     
    H   -4.8146000000       -2.3367000000       -0.0581000000     
    C   -6.4432000000       -1.4035000000       -1.0658000000     
    H   -6.6390000000       -0.3644000000       -1.3321000000     
    H   -6.4225000000       -2.0095000000       -1.9788000000     
    H   -7.2468000000       -1.7673000000       -0.4155000000     

15 17 19 25  F
17 19 25 27  F
