%chk=structure_210.chk
%NProcShared=8
#SP MP2/aug-cc-pVDZ 

Phi Psi fixed scan

0   1
    H   -4.5569000000        3.7511000000        0.6114000000     
    C   -4.6739000000        3.0940000000       -0.2563000000     
    H   -3.9316000000        3.3663000000       -1.0129000000     
    H   -5.6759000000        3.2653000000       -0.6615000000     
    C   -4.5718000000        1.6477000000        0.2070000000     
    O   -5.3482000000        1.1713000000        1.0306000000     
    N   -3.5686000000        0.9206000000       -0.3591000000     
    H   -2.8691000000        1.3432000000       -0.9587000000     
    C   -3.2808000000       -0.4396000000        0.0509000000     
    H   -3.3691000000       -0.4970000000        1.1441000000     
    C   -4.2622000000       -1.4521000000       -0.5716000000     
    H   -4.1921000000       -1.4305000000       -1.6642000000     
    H   -4.0525000000       -2.4714000000       -0.2299000000     
    H   -5.2783000000       -1.1834000000       -0.2730000000     
    C   -1.8291000000       -0.7332000000       -0.3591000000     
    O   -1.2095000000        0.0088000000       -1.1175000000     
    N   -1.3117000000       -1.8994000000        0.1277000000     
    H   -1.7668000000       -2.2728000000        0.9499000000     
    C    0.1150000000       -2.2036000000       -0.0011000000     
    H    0.2702000000       -3.1134000000        0.5922000000     
    C    0.5128000000       -2.5095000000       -1.4506000000     
    H    0.4502000000       -1.6149000000       -2.0730000000     
    H    1.5285000000       -2.9176000000       -1.4976000000     
    H   -0.1637000000       -3.2650000000       -1.8613000000     
    C    0.9379000000       -1.1064000000        0.7265000000     
    O    0.5002000000       -0.5802000000        1.7457000000     
    N    2.1716000000       -0.8430000000        0.2300000000     
    H    2.4651000000       -1.1597000000       -0.6874000000     
    C    3.0144000000        0.1896000000        0.8061000000     
    H    2.3768000000        1.0366000000        1.0903000000     
    C    3.7552000000       -0.3095000000        2.0613000000     
    H    4.4108000000       -1.1497000000        1.8103000000     
    H    4.3640000000        0.4844000000        2.5084000000     
    H    3.0191000000       -0.6371000000        2.7995000000     
    C    3.9964000000        0.6223000000       -0.2961000000     
    O    4.1602000000       -0.0545000000       -1.3091000000     
    N    4.6700000000        1.7758000000       -0.0467000000     
    H    4.4445000000        2.2927000000        0.7914000000     
    C    5.6599000000        2.3268000000       -0.9577000000     
    H    5.7633000000        1.6288000000       -1.7889000000     
    H    5.3405000000        3.3009000000       -1.3459000000     
    H    6.6294000000        2.4426000000       -0.4602000000     

15 17 19 25  F
17 19 25 27  F
