%chk=structure_210.chk
%NProcShared=8
#SP MP2/aug-cc-pVDZ

Single Point calculation at MP2

0   1
    H   -3.6155000000       -1.0230000000        1.4422000000     
    C   -3.2131000000       -1.2356000000        0.4464000000     
    H   -4.0622000000       -1.3017000000       -0.2401000000     
    H   -2.6964000000       -2.1999000000        0.4730000000     
    C   -2.3294000000       -0.0687000000        0.0181000000     
    O   -2.7956000000        1.0575000000       -0.1301000000     
    N   -1.0208000000       -0.3966000000       -0.1806000000     
    H   -0.7287000000       -1.3650000000       -0.1117000000     
    C    0.0771000000        0.5002000000       -0.5271000000     
    H    0.0647000000        0.6971000000       -1.6118000000     
    C    0.0182000000        1.8479000000        0.2079000000     
    H    0.1700000000        1.7177000000        1.2850000000     
    H    0.7784000000        2.5358000000       -0.1825000000     
    H   -0.9604000000        2.3005000000        0.0509000000     
    C    1.3597000000       -0.3236000000       -0.2454000000     
    O    1.3443000000       -1.5485000000       -0.3590000000     
    N    2.4643000000        0.3704000000        0.1270000000     
    H    2.3983000000        1.3717000000        0.2259000000     
    C    3.7462000000       -0.2692000000        0.3744000000     
    H    3.6027000000       -1.3451000000        0.2721000000     
    H    4.5009000000        0.0637000000       -0.3479000000     
    H    4.1018000000       -0.0464000000        1.3866000000     

