%chk=structure_165.chk
%NProcShared=8
#SP MP2/aug-cc-pVDZ

Single Point calculation at MP2

0   1
    H   -4.1637000000       -1.1268000000       -0.5034000000     
    C   -3.2905000000       -1.1994000000        0.1501000000     
    H   -2.8352000000       -2.1882000000        0.0381000000     
    H   -3.6425000000       -1.0906000000        1.1822000000     
    C   -2.3423000000       -0.0513000000       -0.1727000000     
    O   -2.7514000000        1.0917000000       -0.3505000000     
    N   -1.0258000000       -0.4063000000       -0.2725000000     
    H   -0.7398000000       -1.3297000000        0.0402000000     
    C    0.0827000000        0.5357000000       -0.3005000000     
    H    0.1483000000        0.9989000000       -1.2948000000     
    C   -0.0265000000        1.6506000000        0.7628000000     
    H   -0.0274000000        1.2139000000        1.7674000000     
    H    0.8204000000        2.3419000000        0.6892000000     
    H   -0.9538000000        2.2044000000        0.6148000000     
    C    1.3542000000       -0.2957000000       -0.0341000000     
    O    1.2956000000       -1.4319000000        0.4306000000     
    N    2.5223000000        0.3319000000       -0.3312000000     
    H    2.4812000000        1.2618000000       -0.7236000000     
    C    3.8260000000       -0.2656000000       -0.0947000000     
    H    3.6595000000       -1.2613000000        0.3174000000     
    H    4.3926000000       -0.3535000000       -1.0287000000     
    H    4.4093000000        0.3267000000        0.6199000000     

