%chk=structure_0.chk
%NProcShared=8
#SP MP2/aug-cc-pVDZ

Single Point calculation at MP2

0   1
    H    3.4239000000       -1.6585000000       -0.4821000000     
    C    3.2284000000       -0.5835000000       -0.4630000000     
    H    3.2817000000       -0.1870000000       -1.4821000000     
    H    4.0205000000       -0.1160000000        0.1326000000     
    C    1.8896000000       -0.3374000000        0.2190000000     
    O    1.5437000000       -0.9460000000        1.2249000000     
    N    1.1021000000        0.6237000000       -0.3574000000     
    H    1.4318000000        1.0862000000       -1.1932000000     
    C   -0.1369000000        1.1189000000        0.2415000000     
    H    0.0449000000        1.2304000000        1.3173000000     
    C   -0.4911000000        2.4850000000       -0.3532000000     
    H   -0.6306000000        2.4171000000       -1.4397000000     
    H   -1.4273000000        2.8331000000        0.0857000000     
    H    0.2979000000        3.2155000000       -0.1454000000     
    C   -1.3663000000        0.1819000000        0.1612000000     
    O   -2.4356000000        0.5725000000        0.6175000000     
    N   -1.1999000000       -1.0186000000       -0.4549000000     
    H   -0.2523000000       -1.3313000000       -0.6038000000     
    C   -2.2533000000       -2.0202000000       -0.4528000000     
    H   -3.2054000000       -1.5034000000       -0.3273000000     
    H   -2.2548000000       -2.5657000000       -1.4019000000     
    H   -2.1327000000       -2.7368000000        0.3700000000     

