%chk=structure_90.chk
NProcShared=8
# b3lyp/6-31G* Opt=(ModRedundant, maxcycles=1000, calcfc) geom=nocrowd

Phi Psi fixed scan

0   1
    H    9.1768000000        1.0000000000        1.9230000000     
    C    9.1768000000        2.0900000000        1.9230000000     
    H   10.0666000000        2.4538000000        1.4093000000     
    H    9.1768000000        2.4538000000        2.9505000000     
    C    7.9406000000        2.6408000000        1.2093000000     
    O    7.1065000000        1.8774000000        0.7277000000     
    N    7.8298000000        3.9696000000        1.1453000000     
    H    8.5419000000        4.5561000000        1.5565000000     
    C    6.7058000000        4.6139000000        0.4964000000     
    H    6.6707000000        4.3155000000       -0.5514000000     
    C    5.3900000000        4.2208000000        1.1594000000     
    H    5.4064000000        4.5213000000        2.2071000000     
    H    4.5638000000        4.7189000000        0.6520000000     
    H    5.2578000000        3.1409000000        1.0938000000     
    C    6.8276000000        6.1294000000        0.5667000000     
    O    7.7906000000        6.6527000000        1.1227000000     
    N    5.8460000000        6.8349000000        0.0000000000     
    H    5.0745000000        6.3592000000       -0.4455000000     
    C    5.8461000000        8.2839000000        0.0000000000     
    H    5.3323000000        8.6477000000       -0.8898000000     
    C    5.1347000000        8.8329000000        1.2322000000     
    H    5.6431000000        8.4846000000        2.1312000000     
    H    5.1499000000        9.9224000000        1.2058000000     
    H    4.1019000000        8.4846000000        1.2414000000     
    C    7.2660000000        8.8318000000        0.0000000000     
    O    7.8480000000        9.0564000000        1.0589000000     
    N    7.8237000000        9.0470000000       -1.1937000000     
    H    7.3050000000        8.8468000000       -2.0369000000     
    C    9.1698000000        9.5664000000       -1.3276000000     
    H    9.2317000000       10.5441000000       -0.8496000000     
    C   10.1846000000        8.6373000000       -0.6699000000     
    H   10.1409000000        7.6568000000       -1.1440000000     
    H   11.1860000000        9.0520000000       -0.7857000000     
    H    9.9534000000        8.5382000000        0.3906000000     
    C    9.5564000000        9.7156000000       -2.7920000000     
    O    8.7642000000        9.4099000000       -3.6806000000     
    N   10.7798000000       10.1877000000       -3.0422000000     
    H   11.3955000000       10.4253000000       -2.2776000000     
    C   11.2665000000       10.3755000000       -4.3941000000     
    H   10.4943000000       10.0775000000       -5.1034000000     
    H   11.5155000000       11.4253000000       -4.5486000000     
    H   12.1562000000        9.7650000000       -4.5486000000     

15 17 19 25 F
17 19 25 27 F
