%chk=structure_135.chk
%NProcShared=8
#SP MP2/aug-cc-pVDZ

Single Point calculation at MP2

0   1
    H   -2.3157000000       -2.1873000000       -0.7984000000     
    C   -2.8979000000       -1.2824000000       -0.5843000000     
    H   -3.7009000000       -1.5414000000        0.1071000000     
    H   -3.3287000000       -0.9248000000       -1.5270000000     
    C   -1.9993000000       -0.2423000000        0.0737000000     
    O   -2.0178000000       -0.0270000000        1.2699000000     
    N   -1.2302000000        0.4970000000       -0.8332000000     
    H   -1.3021000000        0.1143000000       -1.7703000000     
    C    0.1413000000        0.9634000000       -0.5687000000     
    H    0.5412000000        1.2534000000       -1.5470000000     
    C    0.1226000000        2.2004000000        0.3493000000     
    H   -0.3096000000        1.9256000000        1.3136000000     
    H    1.1371000000        2.5851000000        0.5064000000     
    H   -0.4893000000        2.9880000000       -0.1010000000     
    C    1.0697000000       -0.1013000000        0.0662000000     
    O    0.7411000000       -0.8382000000        0.9812000000     
    N    2.3117000000       -0.1503000000       -0.5181000000     
    H    2.5403000000        0.5268000000       -1.2319000000     
    C    3.3839000000       -0.9789000000        0.0064000000     
    H    2.9393000000       -1.6650000000        0.7285000000     
    H    3.8562000000       -1.5542000000       -0.7974000000     
    H    4.1523000000       -0.3803000000        0.5123000000     

