%chk=structure_30.chk
%NProcShared=8
#SP MP2/aug-cc-pVDZ

Single Point calculation at MP2

0   1
    H   -3.1277000000       -2.0143000000        0.0432000000     
    C   -3.0983000000       -0.9363000000       -0.1345000000     
    H   -3.8144000000       -0.4722000000        0.5527000000     
    H   -3.4178000000       -0.7309000000       -1.1613000000     
    C   -1.7011000000       -0.4247000000        0.1935000000     
    O   -1.0975000000       -0.7878000000        1.1961000000     
    N   -1.1878000000        0.4806000000       -0.6975000000     
    H   -1.7637000000        0.7419000000       -1.4849000000     
    C    0.0977000000        1.1809000000       -0.5647000000     
    H    0.3447000000        1.5276000000       -1.5764000000     
    C   -0.0273000000        2.3982000000        0.3618000000     
    H   -0.3076000000        2.0724000000        1.3676000000     
    H    0.9281000000        2.9218000000        0.4235000000     
    H   -0.7952000000        3.0822000000       -0.0151000000     
    C    1.3095000000        0.3133000000       -0.1347000000     
    O    2.2728000000        0.8493000000        0.3978000000     
    N    1.2980000000       -0.9977000000       -0.5076000000     
    H    0.3968000000       -1.4078000000       -0.6991000000     
    C    2.3422000000       -1.9006000000       -0.0482000000     
    H    3.2839000000       -1.3514000000       -0.0212000000     
    H    2.1340000000       -2.2850000000        0.9589000000     
    H    2.4298000000       -2.7414000000       -0.7426000000     

