%chk=structure_255.chk
%NProcShared=8
#SP MP2/aug-cc-pVDZ

Single Point calculation at MP2

0   1
    H    3.5049000000       -1.5152000000       -0.6438000000     
    C    3.0044000000       -1.0915000000        0.2296000000     
    H    3.6801000000       -0.3925000000        0.7327000000     
    H    2.7798000000       -1.9138000000        0.9190000000     
    C    1.7005000000       -0.4494000000       -0.2166000000     
    O    1.0134000000       -0.9271000000       -1.1150000000     
    N    1.3583000000        0.7059000000        0.4365000000     
    H    1.8886000000        0.9217000000        1.2698000000     
    C    0.0003000000        1.2779000000        0.3813000000     
    H   -0.0938000000        1.8966000000        1.2774000000     
    C   -0.1686000000        2.1636000000       -0.8604000000     
    H    0.0253000000        1.6005000000       -1.7781000000     
    H   -1.1805000000        2.5783000000       -0.9086000000     
    H    0.5472000000        2.9913000000       -0.8237000000     
    C   -1.0848000000        0.1851000000        0.5820000000     
    O   -1.3283000000       -0.2137000000        1.7155000000     
    N   -1.7759000000       -0.2201000000       -0.5214000000     
    H   -1.2574000000       -0.1637000000       -1.3888000000     
    C   -2.7136000000       -1.3284000000       -0.4065000000     
    H   -3.3377000000       -1.1714000000        0.4745000000     
    H   -3.3444000000       -1.3569000000       -1.2990000000     
    H   -2.1999000000       -2.2924000000       -0.2960000000     

