%chk=structure_90.chk
%NProcShared=8
#SP MP2/aug-cc-pVDZ

Single Point calculation at MP2

0   1
    H   -3.3551000000       -2.0374000000        0.0935000000     
    C   -3.2053000000       -1.0164000000       -0.2640000000     
    H   -3.9415000000       -0.3770000000        0.2371000000     
    H   -3.3924000000       -0.9793000000       -1.3425000000     
    C   -1.8008000000       -0.5671000000        0.1305000000     
    O   -1.2837000000       -0.9064000000        1.1814000000     
    N   -1.1825000000        0.2374000000       -0.7997000000     
    H   -1.7523000000        0.5377000000       -1.5792000000     
    C    0.0447000000        1.0256000000       -0.6020000000     
    H    0.4030000000        1.2642000000       -1.6102000000     
    C   -0.2351000000        2.3235000000        0.1640000000     
    H   -0.5340000000        2.0843000000        1.1869000000     
    H    0.6632000000        2.9478000000        0.2104000000     
    H   -1.0317000000        2.8926000000       -0.3282000000     
    C    1.1774000000        0.2439000000        0.1205000000     
    O    1.4183000000        0.3736000000        1.3076000000     
    N    2.0112000000       -0.4296000000       -0.7388000000     
    H    1.6461000000       -0.6496000000       -1.6565000000     
    C    3.0772000000       -1.2790000000       -0.2291000000     
    H    3.4712000000       -0.8154000000        0.6763000000     
    H    2.7238000000       -2.2870000000        0.0261000000     
    H    3.8729000000       -1.3561000000       -0.9759000000     

