%chk=60.chk
NProcShared=8
#P b3lyp/6-31G* Opt=(AddRedundant, Tight) Freq SCF(Conver=6)

Phi Psi scan for tetralanine: Phi: 240.00 Psi: 60.00

0   1
    H    2.0000000000        1.0000000000       -0.0000000000     
    C    2.0000000000        2.0900000000        0.0000000000     
    H    1.4863000000        2.4539000000        0.8898000000     
    H    1.4863000000        2.4539000000       -0.8898000000     
    C    3.4274000000        2.6408000000       -0.0000000000     
    O    4.3906000000        1.8774000000       -0.0000000000     
    N    3.5554000000        3.9697000000       -0.0000000000     
    H    2.7331000000        4.5562000000       -0.0000000000     
    C    4.8533000000        4.6139000000       -0.0000000000     
    H    5.4076000000        4.3155000000        0.8898000000     
    C    5.6613000000        4.2208000000       -1.2322000000     
    H    5.1233000000        4.5214000000       -2.1312000000     
    H    6.6305000000        4.7189000000       -1.2058000000     
    H    5.8085000000        3.1409000000       -1.2414000000     
    C    4.7127000000        6.1294000000        0.0000000000     
    O    3.6006000000        6.6527000000        0.0000000000     
    N    5.8460000000        6.8349000000        0.0000000000     
    H    6.7370000000        6.3592000000       -0.0000000000     
    C    5.8461000000        8.2839000000        0.0000000000     
    H    5.3323000000        8.6477000000       -0.8898000000     
    C    5.1347000000        8.8329000000        1.2322000000     
    H    5.6431000000        8.4846000000        2.1312000000     
    H    5.1499000000        9.9224000000        1.2058000000     
    H    4.1019000000        8.4846000000        1.2414000000     
    C    7.2660000000        8.8318000000        0.0000000000     
    O    8.2292000000        8.0684000000       -0.0000000000     
    N    7.3940000000       10.1607000000        0.0000000000     
    H    6.5717000000       10.7472000000        0.0000000000     
    C    8.6919000000       10.8049000000       -0.0000000000     
    H    9.4746000000       10.0464000000       -0.0000000000     
    C    8.8673000000       11.6862000000       -1.2321000000     
    H    8.0961000000       12.4565000000       -1.2414000000     
    H    9.8500000000       12.1571000000       -1.2058000000     
    H    8.7813000000       11.0760000000       -2.1312000000     
    C    8.8669000000       11.6845000000        1.2297000000     
    O    8.8070000000       11.1993000000        2.3573000000     
    N    9.0842000000       12.9832000000        1.0097000000     
    H    9.1251000000       13.3353000000        0.0640000000     
    C    9.2668000000       13.9239000000        2.0966000000     
    H    9.1964000000       13.3979000000        3.0487000000     
    H   10.2478000000       14.3915000000        2.0122000000     
    H    8.4939000000       14.6909000000        2.0478000000     

25 27 29 35 F
37 37 37 37 F
