%chk=structure_45.chk
%NProcShared=8
#SP MP2/aug-cc-pVDZ

Single Point calculation at MP2

0   1
    H    3.9638000000       -0.7476000000        0.0454000000     
    C    3.1710000000       -0.4741000000       -0.6562000000     
    H    3.0858000000       -1.2871000000       -1.3852000000     
    H    3.4568000000        0.4428000000       -1.1804000000     
    C    1.8634000000       -0.3650000000        0.1121000000     
    O    1.5052000000       -1.2611000000        0.8808000000     
    N    1.1625000000        0.7843000000       -0.0824000000     
    H    1.4936000000        1.3900000000       -0.8220000000     
    C   -0.1799000000        1.1205000000        0.4282000000     
    H   -0.1214000000        1.0250000000        1.5224000000     
    C   -0.4814000000        2.5745000000        0.0745000000     
    H   -0.5284000000        2.7105000000       -1.0123000000     
    H   -1.4547000000        2.8594000000        0.4744000000     
    H    0.2886000000        3.2347000000        0.4873000000     
    C   -1.3584000000        0.1950000000       -0.0044000000     
    O   -2.4288000000        0.6889000000       -0.3516000000     
    N   -1.1421000000       -1.1385000000        0.0559000000     
    H   -0.2761000000       -1.4661000000        0.4816000000     
    C   -2.2135000000       -2.0751000000       -0.2377000000     
    H   -2.7280000000       -1.7744000000       -1.1540000000     
    H   -1.7840000000       -3.0710000000       -0.3720000000     
    H   -2.9582000000       -2.1135000000        0.5680000000     

