%chk=structure_120.chk
%NProcShared=8
#SP MP2/aug-cc-pVDZ

Single Point calculation at MP2

0   1
    H   -3.6790000000       -1.5418000000       -0.0229000000     
    C   -3.0577000000       -0.8865000000        0.5921000000     
    H   -2.8006000000       -1.4334000000        1.5067000000     
    H   -3.6302000000        0.0045000000        0.8678000000     
    C   -1.7822000000       -0.5649000000       -0.1677000000     
    O   -1.1975000000       -1.3967000000       -0.8553000000     
    N   -1.3275000000        0.7245000000       -0.0544000000     
    H   -1.6822000000        1.2793000000        0.7144000000     
    C    0.0180000000        1.0559000000       -0.5230000000     
    H    0.0555000000        0.8118000000       -1.5896000000     
    C    0.2856000000        2.5472000000       -0.3197000000     
    H    0.3088000000        2.7814000000        0.7498000000     
    H    1.2573000000        2.8195000000       -0.7431000000     
    H   -0.4874000000        3.1488000000       -0.8091000000     
    C    1.0741000000        0.2264000000        0.2422000000     
    O    1.2292000000        0.3698000000        1.4497000000     
    N    1.8508000000       -0.5814000000       -0.5357000000     
    H    1.4227000000       -0.8883000000       -1.4002000000     
    C    2.8147000000       -1.4851000000        0.0753000000     
    H    3.3018000000       -0.9639000000        0.9008000000     
    H    2.3372000000       -2.3902000000        0.4731000000     
    H    3.5643000000       -1.7720000000       -0.6673000000     

