%chk=structure_90.chk
%NProcShared=8
#SP MP2/aug-cc-pVDZ

Single Point calculation at MP2

0   1
    H   -3.7515000000       -1.2863000000        0.1239000000     
    C   -3.0267000000       -0.7423000000        0.7346000000     
    H   -2.7687000000       -1.3805000000        1.5873000000     
    H   -3.4874000000        0.1762000000        1.1109000000     
    C   -1.7777000000       -0.4969000000       -0.0955000000     
    O   -1.3049000000       -1.3717000000       -0.8208000000     
    N   -1.2468000000        0.7599000000       -0.0123000000     
    H   -1.5857000000        1.3518000000        0.7360000000     
    C    0.0867000000        1.1018000000       -0.5338000000     
    H    0.0741000000        0.8547000000       -1.6013000000     
    C    0.3378000000        2.5940000000       -0.3468000000     
    H    0.4391000000        2.8312000000        0.7167000000     
    H    1.2728000000        2.8832000000       -0.8344000000     
    H   -0.4785000000        3.1790000000       -0.7831000000     
    C    1.2089000000        0.2701000000        0.1460000000     
    O    1.8022000000        0.6897000000        1.1352000000     
    N    1.5010000000       -0.9039000000       -0.4770000000     
    H    0.7466000000       -1.2869000000       -1.0411000000     
    C    2.4501000000       -1.8349000000        0.1131000000     
    H    3.2865000000       -1.2683000000        0.5256000000     
    H    2.0036000000       -2.4261000000        0.9242000000     
    H    2.8167000000       -2.5147000000       -0.6607000000     

