%chk=structure_255.chk
%NProcShared=8
#SP MP2/aug-cc-pVDZ

Single Point calculation at MP2

0   1
    H   -3.8114000000       -1.1484000000        0.7783000000     
    C   -2.8985000000       -0.6914000000        1.1635000000     
    H   -2.3572000000       -1.4456000000        1.7483000000     
    H   -3.1580000000        0.1370000000        1.8324000000     
    C   -2.0400000000       -0.2460000000       -0.0141000000     
    O   -2.1585000000       -0.7146000000       -1.1298000000     
    N   -1.1575000000        0.7887000000        0.2849000000     
    H   -1.0553000000        0.9608000000        1.2804000000     
    C    0.0880000000        1.0095000000       -0.4645000000     
    H   -0.2035000000        1.0404000000       -1.5190000000     
    C    0.6790000000        2.3637000000       -0.0701000000     
    H    0.9076000000        2.4216000000        1.0037000000     
    H    1.5980000000        2.5707000000       -0.6278000000     
    H   -0.0413000000        3.1573000000       -0.2893000000     
    C    1.0377000000       -0.2180000000       -0.3876000000     
    O    0.8049000000       -1.2430000000       -1.0089000000     
    N    2.1242000000       -0.0823000000        0.4383000000     
    H    2.2959000000        0.8053000000        0.8849000000     
    C    3.1063000000       -1.1391000000        0.6094000000     
    H    2.7586000000       -1.9990000000        0.0355000000     
    H    4.0915000000       -0.8337000000        0.2361000000     
    H    3.2015000000       -1.4232000000        1.6641000000     

