%chk=structure_195.chk
%NProcShared=8
# b3lyp/6-31G* Opt=(ModRedundant, maxcycles=1000, calcfc) geom=nocrowd

Phi Psi fixed scan

0   1
    H    1.7437000000        1.5164000000       -1.3919000000     
    C    1.8708000000        2.3503000000       -0.7015000000     
    H    1.7090000000        2.0051000000        0.3197000000     
    H    1.1495000000        3.1323000000       -0.9387000000     
    C    3.2798000000        2.9381000000       -0.8014000000     
    O    4.0982000000        2.4665000000       -1.5877000000     
    N    3.5554000000        3.9697000000       -0.0000000000     
    H    2.8491000000        4.3224000000        0.6300000000     
    C    4.8533000000        4.6139000000       -0.0000000000     
    H    5.4076000000        4.3155000000        0.8898000000     
    C    5.6613000000        4.2208000000       -1.2322000000     
    H    5.1233000000        4.5214000000       -2.1312000000     
    H    6.6305000000        4.7189000000       -1.2058000000     
    H    5.8085000000        3.1409000000       -1.2414000000     
    C    4.7127000000        6.1294000000        0.0000000000     
    O    3.6366000000        6.6560000000        0.2741000000     
    N    5.8056000000        6.8311000000       -0.3089000000     
    H    6.6679000000        6.3528000000       -0.5272000000     
    C    5.8010000000        8.2797000000       -0.3436000000     
    H    4.8071000000        8.6467000000       -0.0875000000     
    H    6.5256000000        8.6631000000        0.3748000000     
    H    6.0669000000        8.6206000000       -1.3442000000     

5 7 9 15 F
7 9 15 17 F
