--Link1--
%nproc=8
%mem=4096MB
%chk=IPolQout.vacu.chk
#MP2/cc-pvTZ density=MP2, maxdisk=16GB, pop=(minimal, MK), 5d, punch=mo

Generated by mdgx

0   1
    H    17.2880992   17.2632801   12.2789170
    C    17.4968524   16.4295644   12.9493200
    H    18.5676233   16.2453015   12.8621549
    H    16.9946591   15.5035774   12.6692310
    C    17.0703533   16.8452914   14.3492242
    O    16.4882759   17.8768357   14.5059423
    N    17.4663334   16.0448132   15.2998424
    H    17.8814218   15.1580043   15.0521096
    C    17.6204756   16.2704245   16.7330569
    H    16.6788195   16.7118452   17.0594486
    C    17.8196257   14.9652740   17.3410610
    H    18.7618702   14.5385522   16.9972840
    H    17.7369415   14.9444699   18.4277213
    H    17.0282526   14.3190625   16.9612722
    C    18.6176040   17.3745423   17.1558150
    O    19.5252530   17.7050696   16.3570259
    N    18.3862255   17.9130312   18.3996518
    H    17.9474315   17.3151876   19.0853214
    C    19.1009138   19.0943942   19.0501028
    H    18.4320195   19.7807616   19.5693138
    H    19.7086382   18.7397276   19.8825587
    H    19.7302335   19.6658517   18.3678322



