%chk=structure_90.chk
%NProcShared=8
# b3lyp/6-31G* Opt=(ModRedundant, maxcycles=1000, calcfc) geom=nocrowd

Phi Psi fixed scan

0   1
    H    1.3513000000        2.3068000000       -1.9013000000     
    C    1.6731000000        2.7486000000       -0.9582000000     
    H    1.7242000000        1.9746000000       -0.1925000000     
    H    0.9598000000        3.5143000000       -0.6531000000     
    C    3.0539000000        3.3932000000       -1.0948000000     
    O    3.6506000000        3.3681000000       -2.1689000000     
    N    3.5554000000        3.9697000000       -0.0000000000     
    H    3.0267000000        3.9647000000        0.8606000000     
    C    4.8533000000        4.6139000000       -0.0000000000     
    H    5.4076000000        4.3155000000        0.8898000000     
    C    5.6613000000        4.2208000000       -1.2322000000     
    H    5.1233000000        4.5214000000       -2.1312000000     
    H    6.6305000000        4.7189000000       -1.2058000000     
    H    5.8085000000        3.1409000000       -1.2414000000     
    C    4.7127000000        6.1294000000        0.0000000000     
    O    4.6551000000        6.7505000000       -1.0589000000     
    N    4.6575000000        6.7246000000        1.1937000000     
    H    4.7088000000        6.1710000000        2.0369000000     
    C    4.5242000000        8.1613000000        1.3276000000     
    H    4.4820000000        8.6165000000        0.3381000000     
    H    3.6091000000        8.3926000000        1.8727000000     
    H    5.3811000000        8.5569000000        1.8727000000     

5 7 9 15 F
7 9 15 17 F
