%chk=structure_210.chk
%NProcShared=8
#SP MP2/aug-cc-pVDZ

Single Point calculation at MP2

0   1
    H   -4.2021000000       -0.6575000000        0.7683000000     
    C   -3.3196000000       -1.1409000000        0.3403000000     
    H   -3.6455000000       -1.6857000000       -0.5525000000     
    H   -2.9139000000       -1.8551000000        1.0629000000     
    C   -2.3240000000       -0.0679000000       -0.0737000000     
    O   -2.6555000000        0.9104000000       -0.7345000000     
    N   -1.0370000000       -0.2592000000        0.3628000000     
    H   -0.7557000000       -1.2069000000        0.5941000000     
    C    0.0440000000        0.5406000000       -0.2042000000     
    H   -0.1776000000        0.7164000000       -1.2680000000     
    C    0.1390000000        1.9082000000        0.4872000000     
    H    0.4306000000        1.8066000000        1.5378000000     
    H    0.8464000000        2.5761000000       -0.0210000000     
    H   -0.8423000000        2.3851000000        0.4371000000     
    C    1.3108000000       -0.3382000000       -0.1458000000     
    O    1.2223000000       -1.5637000000       -0.1966000000     
    N    2.4950000000        0.3133000000       -0.0085000000     
    H    2.4929000000        1.3214000000        0.0226000000     
    C    3.7735000000       -0.3782000000       -0.0051000000     
    H    3.5693000000       -1.4475000000        0.0570000000     
    H    4.3425000000       -0.1758000000       -0.9207000000     
    H    4.3728000000       -0.0721000000        0.8591000000     

