%chk=structure_165.chk
%NProcShared=8
#SP MP2/aug-cc-pVDZ

Single Point calculation at MP2

0   1
    H   -4.2063000000       -0.6789000000        0.5369000000     
    C   -3.3504000000       -1.1428000000        0.0372000000     
    H   -3.7092000000       -1.5467000000       -0.9149000000     
    H   -2.9786000000       -1.9647000000        0.6566000000     
    C   -2.3074000000       -0.0720000000       -0.2462000000     
    O   -2.5652000000        0.9320000000       -0.9044000000     
    N   -1.0742000000       -0.2956000000        0.2919000000     
    H   -0.8278000000       -1.1839000000        0.7137000000     
    C    0.0509000000        0.5695000000       -0.0033000000     
    H   -0.0767000000        0.9516000000       -1.0241000000     
    C    0.1194000000        1.7705000000        0.9602000000     
    H    0.2474000000        1.4276000000        1.9922000000     
    H    0.9506000000        2.4401000000        0.7109000000     
    H   -0.8138000000        2.3347000000        0.8857000000     
    C    1.3203000000       -0.2949000000        0.0781000000     
    O    1.3157000000       -1.3924000000        0.6312000000     
    N    2.4312000000        0.2617000000       -0.4746000000     
    H    2.3389000000        1.1512000000       -0.9445000000     
    C    3.7325000000       -0.3851000000       -0.4595000000     
    H    3.6270000000       -1.3187000000        0.0941000000     
    H    4.0751000000       -0.6089000000       -1.4765000000     
    H    4.4793000000        0.2458000000        0.0360000000     

