%chk=structure_285.chk
%NProcShared=8
#SP MP2/aug-cc-pVDZ

Single Point calculation at MP2

0   1
    H    3.8989000000       -1.1522000000       -0.9936000000     
    C    3.0778000000       -1.4638000000       -0.3418000000     
    H    3.5226000000       -1.8808000000        0.5676000000     
    H    2.5005000000       -2.2472000000       -0.8433000000     
    C    2.2574000000       -0.2381000000        0.0335000000     
    O    2.7669000000        0.7655000000        0.5164000000     
    N    0.9123000000       -0.3301000000       -0.2076000000     
    H    0.5262000000       -1.1998000000       -0.5459000000     
    C   -0.0126000000        0.7275000000        0.2135000000     
    H    0.3477000000        1.1078000000        1.1721000000     
    C   -0.0501000000        1.8902000000       -0.7899000000     
    H   -0.3154000000        1.5589000000       -1.8018000000     
    H   -0.7665000000        2.6564000000       -0.4732000000     
    H    0.9438000000        2.3422000000       -0.8395000000     
    C   -1.3797000000        0.0855000000        0.5127000000     
    O   -1.7572000000       -0.1281000000        1.6558000000     
    N   -2.1038000000       -0.2775000000       -0.5938000000     
    H   -1.8090000000        0.0744000000       -1.4935000000     
    C   -3.4363000000       -0.8509000000       -0.4889000000     
    H   -3.5456000000       -1.2482000000        0.5209000000     
    H   -4.2189000000       -0.0996000000       -0.6558000000     
    H   -3.5609000000       -1.6596000000       -1.2162000000     

