%chk=structure_255.chk
%NProcShared=8
#SP MP2/aug-cc-pVDZ

Single Point calculation at MP2

0   1
    H    4.0955000000       -0.7790000000       -1.0164000000     
    C    3.1768000000       -1.2356000000       -0.6403000000     
    H    3.4564000000       -1.9349000000        0.1559000000     
    H    2.6955000000       -1.7978000000       -1.4467000000     
    C    2.2924000000       -0.1453000000       -0.0536000000     
    O    2.7410000000        0.7658000000        0.6302000000     
    N    0.9547000000       -0.2478000000       -0.3535000000     
    H    0.6290000000       -1.1466000000       -0.6851000000     
    C   -0.0228000000        0.5746000000        0.3741000000     
    H    0.3106000000        0.6503000000        1.4154000000     
    C   -0.0930000000        1.9890000000       -0.2136000000     
    H   -0.3309000000        1.9722000000       -1.2843000000     
    H   -0.8347000000        2.5999000000        0.3143000000     
    H    0.8844000000        2.4633000000       -0.0995000000     
    C   -1.3400000000       -0.2254000000        0.4182000000     
    O   -1.4277000000       -1.2290000000        1.1179000000     
    N   -2.3332000000        0.1909000000       -0.4176000000     
    H   -2.2056000000        1.0503000000       -0.9304000000     
    C   -3.6285000000       -0.4649000000       -0.4767000000     
    H   -3.5543000000       -1.3892000000        0.0974000000     
    H   -4.4174000000        0.1619000000       -0.0429000000     
    H   -3.8948000000       -0.7005000000       -1.5130000000     

