%chk=structure_345.chk
%NProcShared=8
#SP MP2/aug-cc-pVDZ

Single Point calculation at MP2

0   1
    H   -3.8511000000       -1.6245000000       -0.3881000000     
    C   -3.1492000000       -1.2835000000        0.3762000000     
    H   -2.6313000000       -2.1469000000        0.8058000000     
    H   -3.7320000000       -0.7967000000        1.1670000000     
    C   -2.2047000000       -0.2667000000       -0.2475000000     
    O   -2.5758000000        0.5462000000       -1.0783000000     
    N   -0.8873000000       -0.3515000000        0.1816000000     
    H   -0.7733000000       -0.8091000000        1.0810000000     
    C    0.0286000000        0.7702000000       -0.0548000000     
    H   -0.2833000000        1.2059000000       -1.0072000000     
    C   -0.0644000000        1.8521000000        1.0330000000     
    H    0.1850000000        1.4410000000        2.0194000000     
    H    0.6388000000        2.6584000000        0.8105000000     
    H   -1.0788000000        2.2611000000        1.0668000000     
    C    1.4925000000        0.3339000000       -0.2257000000     
    O    2.3368000000        1.1458000000       -0.5813000000     
    N    1.7996000000       -0.9413000000        0.1703000000     
    H    1.0389000000       -1.6078000000        0.1410000000     
    C    3.1491000000       -1.4589000000       -0.0062000000     
    H    3.8541000000       -0.6577000000        0.2198000000     
    H    3.3110000000       -2.2935000000        0.6818000000     
    H    3.3359000000       -1.7989000000       -1.0335000000     

