%chk=structure_60.chk
NProcShared=8
# b3lyp/6-31G* Opt=(ModRedundant, maxcycles=1000, calcfc) geom=nocrowd

Phi Psi fixed scan

0   1
    H    9.6921000000        1.0000000000       -0.0000000000     
    C    9.6921000000        2.0900000000       -0.0000000000     
    H   10.2058000000        2.4538000000       -0.8898000000     
    H   10.2058000000        2.4538000000        0.8898000000     
    C    8.2647000000        2.6408000000       -0.0000000000     
    O    7.3015000000        1.8774000000       -0.0000000000     
    N    8.1367000000        3.9696000000       -0.0000000000     
    H    8.9590000000        4.5561000000       -0.0000000000     
    C    6.8388000000        4.6139000000       -0.0000000000     
    H    6.2845000000        4.3155000000       -0.8898000000     
    C    6.0308000000        4.2208000000        1.2321000000     
    H    6.5688000000        4.5213000000        2.1312000000     
    H    5.0616000000        4.7189000000        1.2058000000     
    H    5.8836000000        3.1409000000        1.2414000000     
    C    6.9794000000        6.1294000000       -0.0000000000     
    O    8.0915000000        6.6527000000       -0.0000000000     
    N    5.8460000000        6.8349000000        0.0000000000     
    H    4.9551000000        6.3592000000        0.0000000000     
    C    5.8461000000        8.2839000000        0.0000000000     
    H    5.3323000000        8.6477000000       -0.8898000000     
    C    5.1347000000        8.8329000000        1.2322000000     
    H    5.6431000000        8.4846000000        2.1312000000     
    H    5.1499000000        9.9224000000        1.2058000000     
    H    4.1019000000        8.4846000000        1.2414000000     
    C    7.2660000000        8.8318000000        0.0000000000     
    O    7.6574000000        9.5503000000        0.9171000000     
    N    8.0386000000        8.4902000000       -1.0338000000     
    H    7.6716000000        7.8967000000       -1.7640000000     
    C    9.4087000000        8.9471000000       -1.1497000000     
    H    9.4275000000       10.0365000000       -1.1807000000     
    C   10.2458000000        8.4788000000        0.0359000000     
    H   10.2440000000        7.3895000000        0.0749000000     
    H   11.2693000000        8.8362000000       -0.0776000000     
    H    9.8232000000        8.8756000000        0.9590000000     
    C   10.0589000000        8.4132000000       -2.4180000000     
    O    9.4267000000        7.6930000000       -3.1875000000     
    N   11.3274000000        8.7686000000       -2.6346000000     
    H   11.8055000000        9.3628000000       -1.9725000000     
    C   12.0574000000        8.3257000000       -3.8054000000     
    H   11.4129000000        7.6969000000       -4.4197000000     
    H   12.3771000000        9.1923000000       -4.3841000000     
    H   12.9320000000        7.7544000000       -3.4943000000     

15 17 19 25 F
17 19 25 27 F
