%chk=structure_150.chk
%NProcShared=8
#SP MP2/aug-cc-pVDZ

Single Point calculation at MP2

0   1
    H   -3.2264000000       -0.1657000000        1.4343000000     
    C   -3.3035000000       -0.4097000000        0.3677000000     
    H   -3.8935000000        0.3769000000       -0.1176000000     
    H   -3.8213000000       -1.3645000000        0.2656000000     
    C   -1.9072000000       -0.5424000000       -0.2288000000     
    O   -1.3888000000       -1.6205000000       -0.4472000000     
    N   -1.3249000000        0.6747000000       -0.5783000000     
    H   -1.9091000000        1.4634000000       -0.3244000000     
    C    0.0954000000        1.0349000000       -0.4821000000     
    H    0.4500000000        1.3159000000       -1.4854000000     
    C    0.2520000000        2.2548000000        0.4432000000     
    H   -0.0408000000        1.9859000000        1.4629000000     
    H    1.2914000000        2.5963000000        0.4563000000     
    H   -0.3739000000        3.0866000000        0.0970000000     
    C    1.0171000000       -0.0740000000        0.0686000000     
    O    0.7311000000       -0.7365000000        1.0525000000     
    N    2.2954000000       -0.0087000000       -0.4307000000     
    H    2.4179000000        0.3789000000       -1.3568000000     
    C    3.3187000000       -0.9296000000        0.0421000000     
    H    3.1719000000       -1.0797000000        1.1126000000     
    H    3.2611000000       -1.9082000000       -0.4521000000     
    H    4.3067000000       -0.4954000000       -0.1351000000     

