%chk=300.chk
NProcShared=8
#P b3lyp/6-31G* Opt=(AddRedundant, Tight) Freq SCF(Conver=6)

Phi Psi scan for tetralanine: Phi: 180.00 Psi: 300.00

0   1
    H    8.3226000000        1.5865000000       -0.0000000000     
    C    8.1221000000        2.6579000000       -0.0000000000     
    H    8.5602000000        3.1101000000       -0.8898000000     
    H    8.5602000000        3.1101000000        0.8898000000     
    C    6.6177000000        2.9367000000       -0.0000000000     
    O    5.8114000000        2.0092000000       -0.0000000000     
    N    6.2475000000        4.2194000000       -0.0000000000     
    H    6.9478000000        4.9471000000       -0.0000000000     
    C    4.8533000000        4.6139000000       -0.0000000000     
    H    4.3633000000        4.2187000000       -0.8898000000     
    C    4.1313000000        4.0789000000        1.2321000000     
    H    4.6049000000        4.4733000000        2.1312000000     
    H    3.0871000000        4.3902000000        1.2058000000     
    H    4.1852000000        2.9903000000        1.2414000000     
    C    4.7127000000        6.1294000000        0.0000000000     
    O    3.6006000000        6.6527000000        0.0000000000     
    N    5.8460000000        6.8349000000        0.0000000000     
    H    6.7370000000        6.3592000000       -0.0000000000     
    C    5.8461000000        8.2839000000        0.0000000000     
    H    5.3323000000        8.6477000000       -0.8898000000     
    C    5.1347000000        8.8329000000        1.2322000000     
    H    5.6431000000        8.4846000000        2.1312000000     
    H    5.1499000000        9.9224000000        1.2058000000     
    H    4.1019000000        8.4846000000        1.2414000000     
    C    7.2660000000        8.8318000000        0.0000000000     
    O    8.2292000000        8.0684000000       -0.0000000000     
    N    7.3940000000       10.1607000000        0.0000000000     
    H    6.5717000000       10.7472000000        0.0000000000     
    C    8.6919000000       10.8049000000       -0.0000000000     
    H    9.2462000000       10.5065000000        0.8898000000     
    C    9.4999000000       10.4118000000       -1.2322000000     
    H    8.9619000000       10.7124000000       -2.1312000000     
    H   10.4691000000       10.9099000000       -1.2058000000     
    H    9.6471000000        9.3319000000       -1.2414000000     
    C    8.5513000000       12.3204000000        0.0000000000     
    O    7.4392000000       12.8437000000        0.0000000000     
    N    9.6846000000       13.0259000000        0.0000000000     
    H   10.5756000000       12.5502000000        0.0000000000     
    C    9.6846000000       14.4749000000        0.0000000000     
    H    8.6572000000       14.8387000000        0.0000000000     
    H   10.1984000000       14.8387000000        0.8898000000     
    H   10.1984000000       14.8387000000       -0.8898000000     

5 7 9 15 F
17 17 17 17 F
