%chk=structure_60.chk
%NProcShared=8
#SP MP2/aug-cc-pVDZ 

Phi Psi fixed scan

0   1
    H   -5.2824000000       -3.3592000000        0.1714000000     
    C   -4.8746000000       -2.7227000000       -0.6201000000     
    H   -5.6647000000       -2.5828000000       -1.3644000000     
    H   -4.0287000000       -3.2345000000       -1.0889000000     
    C   -4.5163000000       -1.3692000000       -0.0257000000     
    O   -5.3463000000       -0.6631000000        0.5408000000     
    N   -3.2128000000       -0.9945000000       -0.1603000000     
    H   -2.5395000000       -1.5471000000       -0.6779000000     
    C   -2.7363000000        0.2922000000        0.3046000000     
    H   -3.5006000000        1.0448000000        0.0741000000     
    C   -2.4867000000        0.3004000000        1.8271000000     
    H   -1.7176000000       -0.4320000000        2.0936000000     
    H   -2.1640000000        1.2876000000        2.1782000000     
    H   -3.4193000000        0.0414000000        2.3338000000     
    C   -1.4443000000        0.6015000000       -0.4658000000     
    O   -0.8239000000       -0.2886000000       -1.0516000000     
    N   -1.0711000000        1.9062000000       -0.4737000000     
    H   -1.6059000000        2.5274000000        0.1218000000     
    C    0.2356000000        2.4383000000       -0.9040000000     
    H    0.3720000000        2.1026000000       -1.9410000000     
    C    0.1811000000        3.9619000000       -0.8689000000     
    H    0.0667000000        4.3248000000        0.1579000000     
    H    1.1132000000        4.3800000000       -1.2526000000     
    H   -0.6518000000        4.3242000000       -1.4802000000     
    C    1.4643000000        1.9113000000       -0.1051000000     
    O    2.2019000000        2.7005000000        0.4854000000     
    N    1.6825000000        0.5760000000       -0.1243000000     
    H    1.0560000000       -0.0566000000       -0.6229000000     
    C    2.8290000000        0.0037000000        0.5614000000     
    H    3.6562000000        0.7169000000        0.4716000000     
    C    2.5456000000       -0.2323000000        2.0582000000     
    H    1.7160000000       -0.9363000000        2.1802000000     
    H    3.4254000000       -0.6408000000        2.5684000000     
    H    2.2819000000        0.7192000000        2.5280000000     
    C    3.1822000000       -1.3187000000       -0.1340000000     
    O    2.3330000000       -1.9896000000       -0.7099000000     
    N    4.4875000000       -1.6931000000       -0.0143000000     
    H    5.1308000000       -1.0593000000        0.4380000000     
    C    5.0004000000       -2.9429000000       -0.5488000000     
    H    4.1596000000       -3.4732000000       -0.9978000000     
    H    5.7609000000       -2.7626000000       -1.3175000000     
    H    5.4366000000       -3.5624000000        0.2434000000     

15 17 19 25  F
17 19 25 27  F
