%chk=structure_300.chk
%NProcShared=8
#SP MP2/aug-cc-pVDZ 

Phi Psi fixed scan

0   1
    H   -5.6985000000        2.3971000000        1.1667000000     
    C   -5.3848000000        1.3690000000        1.3728000000     
    H   -6.2928000000        0.7695000000        1.4913000000     
    H   -4.8190000000        1.3502000000        2.3093000000     
    C   -4.6040000000        0.8445000000        0.1765000000     
    O   -5.0896000000        0.8012000000       -0.9508000000     
    N   -3.3307000000        0.4370000000        0.4395000000     
    H   -2.9735000000        0.3629000000        1.3854000000     
    C   -2.4992000000       -0.1759000000       -0.5771000000     
    H   -3.1273000000       -0.8498000000       -1.1755000000     
    C   -1.8702000000        0.8676000000       -1.5228000000     
    H   -1.1654000000        1.5110000000       -0.9866000000     
    H   -1.3303000000        0.3889000000       -2.3479000000     
    H   -2.6702000000        1.4782000000       -1.9481000000     
    C   -1.4241000000       -0.9900000000        0.1622000000     
    O   -1.2601000000       -0.9038000000        1.3754000000     
    N   -0.6432000000       -1.7781000000       -0.6268000000     
    H   -0.8649000000       -1.8481000000       -1.6110000000     
    C    0.4398000000       -2.6119000000       -0.1004000000     
    H    0.0343000000       -3.2572000000        0.6856000000     
    C    1.0335000000       -3.4664000000       -1.2221000000     
    H    1.4555000000       -2.8467000000       -2.0210000000     
    H    1.8356000000       -4.0947000000       -0.8248000000     
    H    0.2684000000       -4.1231000000       -1.6519000000     
    C    1.5208000000       -1.7746000000        0.6211000000     
    O    1.8870000000       -2.0443000000        1.7558000000     
    N    2.1357000000       -0.8371000000       -0.1645000000     
    H    1.6378000000       -0.4775000000       -0.9754000000     
    C    3.0351000000        0.1412000000        0.4244000000     
    H    2.8347000000        0.1737000000        1.5025000000     
    C    4.5099000000       -0.2449000000        0.2086000000     
    H    4.7426000000       -0.2957000000       -0.8602000000     
    H    5.1900000000        0.4757000000        0.6770000000     
    H    4.6896000000       -1.2272000000        0.6543000000     
    C    2.7000000000        1.5057000000       -0.2070000000     
    O    1.9846000000        1.5925000000       -1.2042000000     
    N    3.2679000000        2.5786000000        0.4022000000     
    H    3.7980000000        2.4241000000        1.2483000000     
    C    3.0772000000        3.9447000000       -0.0572000000     
    H    2.5142000000        3.9015000000       -0.9899000000     
    H    2.5121000000        4.5344000000        0.6741000000     
    H    4.0412000000        4.4328000000       -0.2386000000     

15 17 19 25  F
17 19 25 27  F
