%chk=structure_150.chk
%NProcShared=8
#SP MP2/aug-cc-pVDZ 

Phi Psi fixed scan

0   1
    H   -6.4756000000       -2.6235000000       -0.3232000000     
    C   -5.9386000000       -1.9704000000       -1.0184000000     
    H   -6.6763000000       -1.5603000000       -1.7150000000     
    H   -5.2118000000       -2.5673000000       -1.5779000000     
    C   -5.3152000000       -0.8245000000       -0.2341000000     
    O   -5.9934000000       -0.0452000000        0.4301000000     
    N   -3.9596000000       -0.7266000000       -0.3168000000     
    H   -3.4067000000       -1.3399000000       -0.9037000000     
    C   -3.2203000000        0.3366000000        0.3355000000     
    H   -3.7970000000        1.2644000000        0.2380000000     
    C   -2.9908000000        0.0509000000        1.8342000000     
    H   -2.4239000000       -0.8764000000        1.9608000000     
    H   -2.4273000000        0.8573000000        2.3157000000     
    H   -3.9622000000       -0.0466000000        2.3254000000     
    C   -1.8809000000        0.4686000000       -0.3975000000     
    O   -1.4184000000       -0.4452000000       -1.0750000000     
    N   -1.2444000000        1.6700000000       -0.2538000000     
    H   -1.5734000000        2.2653000000        0.4966000000     
    C    0.1754000000        1.7751000000       -0.5625000000     
    H    0.3056000000        1.4793000000       -1.6086000000     
    C    0.6442000000        3.2210000000       -0.3654000000     
    H    0.5414000000        3.5176000000        0.6853000000     
    H    1.6978000000        3.3238000000       -0.6415000000     
    H    0.0540000000        3.9037000000       -0.9849000000     
    C    0.9914000000        0.8193000000        0.3385000000     
    O    0.6469000000        0.5750000000        1.4921000000     
    N    2.1322000000        0.3460000000       -0.2168000000     
    H    2.3840000000        0.5300000000       -1.1821000000     
    C    3.0557000000       -0.5112000000        0.5021000000     
    H    3.1794000000       -0.1068000000        1.5142000000     
    C    2.5373000000       -1.9594000000        0.6068000000     
    H    2.4188000000       -2.3940000000       -0.3908000000     
    H    3.2268000000       -2.5878000000        1.1822000000     
    H    1.5671000000       -1.9533000000        1.1090000000     
    C    4.3912000000       -0.4537000000       -0.2582000000     
    O    4.4435000000       -0.0794000000       -1.4275000000     
    N    5.4744000000       -0.8731000000        0.4476000000     
    H    5.3433000000       -1.1464000000        1.4113000000     
    C    6.8092000000       -0.9513000000       -0.1228000000     
    H    6.7409000000       -0.6210000000       -1.1598000000     
    H    7.5061000000       -0.2996000000        0.4163000000     
    H    7.1902000000       -1.9786000000       -0.0962000000     

15 17 19 25  F
17 19 25 27  F
