%chk=structure_330.chk
%NProcShared=8
#SP MP2/aug-cc-pVDZ 

Phi Psi fixed scan

0   1
    H    5.4655000000        2.4625000000       -0.9572000000     
    C    5.1131000000        1.4962000000       -1.3314000000     
    H    5.9934000000        0.9321000000       -1.6552000000     
    H    4.4596000000        1.6649000000       -2.1928000000     
    C    4.4403000000        0.7440000000       -0.1923000000     
    O    5.0319000000        0.4727000000        0.8492000000     
    N    3.1382000000        0.4025000000       -0.4034000000     
    H    2.6893000000        0.5254000000       -1.3038000000     
    C    2.3932000000       -0.3957000000        0.5499000000     
    H    3.0611000000       -1.1747000000        0.9416000000     
    C    1.8786000000        0.4451000000        1.7359000000     
    H    1.1488000000        1.1898000000        1.4035000000     
    H    1.4033000000       -0.1862000000        2.4964000000     
    H    2.7308000000        0.9482000000        2.1991000000     
    C    1.2405000000       -1.0518000000       -0.2265000000     
    O    0.9627000000       -0.7317000000       -1.3789000000     
    N    0.5321000000       -1.9986000000        0.4530000000     
    H    0.8244000000       -2.2565000000        1.3859000000     
    C   -0.5977000000       -2.7060000000       -0.1475000000     
    H   -0.2631000000       -3.1826000000       -1.0749000000     
    C   -1.1193000000       -3.7760000000        0.8166000000     
    H   -1.4727000000       -3.3266000000        1.7523000000     
    H   -1.9568000000       -4.3024000000        0.3522000000     
    H   -0.3372000000       -4.5076000000        1.0494000000     
    C   -1.7547000000       -1.7872000000       -0.5928000000     
    O   -2.5120000000       -2.1478000000       -1.4875000000     
    N   -1.9240000000       -0.6450000000        0.1203000000     
    H   -1.2030000000       -0.3181000000        0.7537000000     
    C   -2.8824000000        0.3654000000       -0.2832000000     
    H   -2.9457000000        0.3563000000       -1.3790000000     
    C   -4.2849000000        0.0879000000        0.2905000000     
    H   -4.2597000000        0.0929000000        1.3851000000     
    H   -5.0117000000        0.8371000000       -0.0437000000     
    H   -4.6182000000       -0.8947000000       -0.0537000000     
    C   -2.3309000000        1.7199000000        0.1948000000     
    O   -1.4323000000        1.7877000000        1.0324000000     
    N   -2.9285000000        2.8101000000       -0.3516000000     
    H   -3.6286000000        2.6652000000       -1.0655000000     
    C   -2.5650000000        4.1736000000       -0.0021000000     
    H   -1.8057000000        4.1204000000        0.7786000000     
    H   -2.1528000000        4.7063000000       -0.8668000000     
    H   -3.4329000000        4.7260000000        0.3751000000     

15 17 19 25  F
17 19 25 27  F
