%chk=structure_90.chk
%NProcShared=8
#SP MP2/aug-cc-pVDZ 

Phi Psi fixed scan

0   1
    H   -5.6558000000       -2.7000000000       -1.4383000000     
    C   -4.9175000000       -2.7965000000       -0.6360000000     
    H   -4.0418000000       -3.3291000000       -1.0191000000     
    H   -5.3772000000       -3.3914000000        0.1593000000     
    C   -4.6008000000       -1.4114000000       -0.0923000000     
    O   -5.4662000000       -0.6834000000        0.3861000000     
    N   -3.2932000000       -1.0347000000       -0.1695000000     
    H   -2.5891000000       -1.6098000000       -0.6166000000     
    C   -2.8483000000        0.2783000000        0.2526000000     
    H   -3.5994000000        1.0131000000       -0.0625000000     
    C   -2.6866000000        0.3705000000        1.7840000000     
    H   -1.9373000000       -0.3473000000        2.1336000000     
    H   -2.3783000000        1.3747000000        2.0973000000     
    H   -3.6476000000        0.1411000000        2.2505000000     
    C   -1.5157000000        0.5539000000       -0.4568000000     
    O   -0.8398000000       -0.3604000000       -0.9307000000     
    N   -1.1579000000        1.8635000000       -0.5446000000     
    H   -1.7072000000        2.5257000000       -0.0098000000     
    C    0.1970000000        2.3089000000       -0.9118000000     
    H    0.4069000000        1.8821000000       -1.8989000000     
    C    0.2273000000        3.8315000000       -0.9835000000     
    H    0.0995000000        4.2608000000        0.0148000000     
    H    1.1945000000        4.1718000000       -1.3635000000     
    H   -0.5582000000        4.1998000000       -1.6513000000     
    C    1.2660000000        1.7879000000        0.0850000000     
    O    1.6015000000        2.4543000000        1.0634000000     
    N    1.8112000000        0.5873000000       -0.2248000000     
    H    1.3561000000       -0.0138000000       -0.9068000000     
    C    2.7826000000       -0.0517000000        0.6462000000     
    H    3.4713000000        0.7263000000        0.9931000000     
    C    2.1212000000       -0.7143000000        1.8711000000     
    H    1.4059000000       -1.4761000000        1.5448000000     
    H    2.8699000000       -1.1905000000        2.5144000000     
    H    1.5963000000        0.0485000000        2.4524000000     
    C    3.5235000000       -1.1025000000       -0.1934000000     
    O    2.9655000000       -1.6918000000       -1.1129000000     
    N    4.8051000000       -1.3495000000        0.1966000000     
    H    5.1991000000       -0.7888000000        0.9386000000     
    C    5.6386000000       -2.3615000000       -0.4297000000     
    H    5.0342000000       -2.8545000000       -1.1922000000     
    H    6.5178000000       -1.9119000000       -0.9059000000     
    H    5.9732000000       -3.1055000000        0.3024000000     

15 17 19 25  F
17 19 25 27  F
