%chk=structure_180.chk
%NProcShared=8
#SP MP2/aug-cc-pVDZ 

Phi Psi fixed scan

0   1
    H   -7.1070000000       -0.8134000000       -1.4383000000     
    C   -6.3251000000       -1.4303000000       -0.9849000000     
    H   -5.7350000000       -1.9005000000       -1.7776000000     
    H   -6.8237000000       -2.2114000000       -0.4022000000     
    C   -5.5021000000       -0.5634000000       -0.0420000000     
    O   -6.0158000000        0.0588000000        0.8843000000     
    N   -4.1643000000       -0.5337000000       -0.2917000000     
    H   -3.7550000000       -0.9856000000       -1.1010000000     
    C   -3.2527000000        0.2926000000        0.4756000000     
    H   -3.7459000000        1.2521000000        0.6771000000     
    C   -2.8755000000       -0.3580000000        1.8219000000     
    H   -2.3523000000       -1.3035000000        1.6561000000     
    H   -2.2182000000        0.2905000000        2.4114000000     
    H   -3.7920000000       -0.5364000000        2.3900000000     
    C   -2.0139000000        0.5224000000       -0.4000000000     
    O   -1.7804000000       -0.1650000000       -1.3875000000     
    N   -1.2241000000        1.5870000000       -0.0372000000     
    H   -1.3825000000        1.9368000000        0.9014000000     
    C    0.1659000000        1.6217000000       -0.4667000000     
    H    0.1655000000        1.5480000000       -1.5599000000     
    C    0.7998000000        2.9525000000       -0.0407000000     
    H    0.8395000000        3.0372000000        1.0523000000     
    H    1.8221000000        3.0517000000       -0.4156000000     
    H    0.2110000000        3.7879000000       -0.4316000000     
    C    0.9379000000        0.3890000000        0.0803000000     
    O    0.4161000000       -0.4361000000        0.8237000000     
    N    2.2473000000        0.3362000000       -0.2707000000     
    H    2.6776000000        1.0136000000       -0.8909000000     
    C    3.1289000000       -0.7353000000        0.1543000000     
    H    2.9628000000       -0.9109000000        1.2243000000     
    C    2.8636000000       -2.0479000000       -0.6093000000     
    H    3.0400000000       -1.9083000000       -1.6808000000     
    H    3.5148000000       -2.8538000000       -0.2521000000     
    H    1.8238000000       -2.3455000000       -0.4547000000     
    C    4.5641000000       -0.2353000000       -0.0823000000     
    O    4.7949000000        0.7002000000       -0.8458000000     
    N    5.5305000000       -0.9201000000        0.5830000000     
    H    5.2495000000       -1.6637000000        1.2065000000     
    C    6.9487000000       -0.6364000000        0.4338000000     
    H    7.0444000000        0.1918000000       -0.2690000000     
    H    7.3943000000       -0.3475000000        1.3923000000     
    H    7.4856000000       -1.5069000000        0.0401000000     

15 17 19 25  F
17 19 25 27  F
