%chk=structure.chk
NProcShared=8
#P b3lyp/6-31G* Opt=(AddRedundant, Tight) Freq SCF(Conver=6)  geom=nocrowd

Phi Psi scan

0   1
    H    2.0000000000        1.0000000000       -0.0000000000     
    C    2.0000000000        2.0900000000        0.0000000000     
    H    1.4863000000        2.4539000000        0.8898000000     
    H    1.4863000000        2.4539000000       -0.8898000000     
    C    3.4274000000        2.6408000000       -0.0000000000     
    O    4.3906000000        1.8774000000       -0.0000000000     
    N    3.5554000000        3.9697000000       -0.0000000000     
    H    2.7331000000        4.5562000000       -0.0000000000     
    C    4.8533000000        4.6139000000       -0.0000000000     
    H    5.4076000000        4.3155000000        0.8898000000     
    C    5.6613000000        4.2208000000       -1.2322000000     
    H    5.1233000000        4.5214000000       -2.1312000000     
    H    6.6305000000        4.7189000000       -1.2058000000     
    H    5.8085000000        3.1409000000       -1.2414000000     
    C    4.7127000000        6.1294000000        0.0000000000     
    O    3.6006000000        6.6527000000        0.0000000000     
    N    5.8460000000        6.8349000000        0.0000000000     
    H    6.7370000000        6.3592000000       -0.0000000000     
    C    5.8461000000        8.2839000000        0.0000000000     
    H    5.3323000000        8.6477000000       -0.8898000000     
    C    5.1347000000        8.8329000000        1.2322000000     
    H    5.6431000000        8.4846000000        2.1312000000     
    H    5.1499000000        9.9224000000        1.2058000000     
    H    4.1019000000        8.4846000000        1.2414000000     
    C    7.2660000000        8.8318000000        0.0000000000     
    O    8.2292000000        8.0684000000       -0.0000000000     
    N    7.3940000000       10.1607000000        0.0000000000     
    H    6.5717000000       10.7472000000        0.0000000000     
    C    8.6919000000       10.8049000000       -0.0000000000     
    H    9.2462000000       10.5066000000       -0.8898000000     
    C    8.5510000000       12.3234000000        0.0000000000     
    H    8.0058000000       12.6382000000        0.8898000000     
    H    9.5405000000       12.7806000000        0.0000000000     
    H    8.0058000000       12.6383000000       -0.8898000000     
    C    9.4983000000       10.4126000000        1.2297000000     
    O   10.6290000000       10.8618000000        1.4035000000     
    N    8.9131000000        9.5709000000        2.0848000000     
    H    7.9813000000        9.2285000000        1.8985000000     
    C    9.5764000000        9.1219000000        3.2923000000     
    H   10.5664000000        9.5740000000        3.3532000000     
    H    8.9887000000        9.4169000000        4.1615000000     
    H    9.6740000000        8.0365000000        3.2717000000     

25 27 29 35 F
27 29 35 37 0.0 S 6 60.0
