%chk=structure_330.chk
%NProcShared=8
# b3lyp/6-31G* Opt=(ModRedundant, maxcycles=1000, calcfc) geom=nocrowd

Phi Psi fixed scan

0   1
    H    1.7437000000        1.5164000000       -1.3919000000     
    C    1.8708000000        2.3503000000       -0.7015000000     
    H    1.7090000000        2.0051000000        0.3197000000     
    H    1.1495000000        3.1323000000       -0.9387000000     
    C    3.2798000000        2.9381000000       -0.8014000000     
    O    4.0982000000        2.4665000000       -1.5877000000     
    N    3.5554000000        3.9697000000       -0.0000000000     
    H    2.8491000000        4.3224000000        0.6300000000     
    C    4.8533000000        4.6139000000       -0.0000000000     
    H    5.4076000000        4.3155000000        0.8898000000     
    C    5.6613000000        4.2208000000       -1.2322000000     
    H    5.1233000000        4.5214000000       -2.1312000000     
    H    6.6305000000        4.7189000000       -1.2058000000     
    H    5.8085000000        3.1409000000       -1.2414000000     
    C    4.7127000000        6.1294000000        0.0000000000     
    O    5.5682000000        6.8352000000        0.5295000000     
    N    3.6281000000        6.6291000000       -0.5968000000     
    H    2.9524000000        6.0081000000       -1.0184000000     
    C    3.3794000000        8.0551000000       -0.6638000000     
    H    4.1904000000        8.5895000000       -0.1690000000     
    H    3.3232000000        8.3660000000       -1.7069000000     
    H    2.4372000000        8.2838000000       -0.1657000000     

5 7 9 15 F
7 9 15 17 F
