%chk=structure_120.chk
%NProcShared=8
# b3lyp/6-31G* Opt=(ModRedundant, maxcycles=1000, calcfc) geom=nocrowd

Phi Psi fixed scan

0   1
    H    1.9702000000        1.0601000000       -0.5095000000     
    C    1.9850000000        2.1203000000       -0.2568000000     
    H    1.5820000000        2.2609000000        0.7462000000     
    H    1.3772000000        2.6735000000       -0.9728000000     
    C    3.4103000000        2.6754000000       -0.2933000000     
    O    4.3566000000        1.9459000000       -0.5812000000     
    N    3.5554000000        3.9697000000       -0.0000000000     
    H    2.7466000000        4.5290000000        0.2306000000     
    C    4.8533000000        4.6139000000       -0.0000000000     
    H    5.4076000000        4.3155000000        0.8898000000     
    C    5.6613000000        4.2208000000       -1.2322000000     
    H    5.1233000000        4.5214000000       -2.1312000000     
    H    6.6305000000        4.7189000000       -1.2058000000     
    H    5.8085000000        3.1409000000       -1.2414000000     
    C    4.7127000000        6.1294000000        0.0000000000     
    O    4.1278000000        6.7016000000       -0.9171000000     
    N    5.2518000000        6.7797000000        1.0338000000     
    H    5.7229000000        6.2651000000        1.7640000000     
    C    5.1851000000        8.2226000000        1.1497000000     
    H    4.6503000000        8.6321000000        0.2928000000     
    H    4.6601000000        8.4901000000        2.0667000000     
    H    6.1948000000        8.6324000000        1.1769000000     

5 7 9 15 F
7 9 15 17 F
