%chk=structure_330.chk
%NProcShared=8
#SP MP2/aug-cc-pVDZ 

Phi Psi fixed scan

0   1
    H   -6.8760000000        1.5638000000       -0.3474000000     
    C   -6.1011000000        1.1382000000       -0.9925000000     
    H   -6.1438000000        1.6711000000       -1.9475000000     
    H   -6.3215000000        0.0801000000       -1.1636000000     
    C   -4.7415000000        1.3846000000       -0.3547000000     
    O   -4.3398000000        2.5150000000       -0.0918000000     
    N   -4.0056000000        0.2687000000       -0.0919000000     
    H   -4.3091000000       -0.6585000000       -0.3658000000     
    C   -2.6655000000        0.3411000000        0.4548000000     
    H   -2.1274000000        1.1541000000       -0.0490000000     
    C   -2.6777000000        0.6295000000        1.9701000000     
    H   -3.1858000000       -0.1761000000        2.5103000000     
    H   -1.6627000000        0.7330000000        2.3721000000     
    H   -3.2102000000        1.5680000000        2.1411000000     
    C   -1.9840000000       -1.0044000000        0.1450000000     
    O   -2.6374000000       -1.9881000000       -0.1913000000     
    N   -0.6263000000       -1.0026000000        0.2856000000     
    H   -0.2259000000       -0.1964000000        0.7491000000     
    C    0.2077000000       -2.2133000000        0.2532000000     
    H   -0.0513000000       -2.8718000000        1.0902000000     
    C    0.0607000000       -2.9991000000       -1.0632000000     
    H    0.3185000000       -2.3652000000       -1.9188000000     
    H    0.7422000000       -3.8549000000       -1.0409000000     
    H   -0.9638000000       -3.3512000000       -1.1814000000     
    C    1.6906000000       -1.8586000000        0.4412000000     
    O    2.4636000000       -2.6563000000        0.9614000000     
    N    2.0796000000       -0.6370000000       -0.0153000000     
    H    1.4620000000       -0.0359000000       -0.5514000000     
    C    3.4570000000       -0.1827000000        0.0534000000     
    H    3.8385000000       -0.4135000000        1.0550000000     
    C    4.3568000000       -0.8726000000       -0.9907000000     
    H    4.0048000000       -0.6513000000       -2.0036000000     
    H    5.3953000000       -0.5338000000       -0.9039000000     
    H    4.3280000000       -1.9524000000       -0.8274000000     
    C    3.4187000000        1.3390000000       -0.1684000000     
    O    2.4591000000        1.8737000000       -0.7201000000     
    N    4.5190000000        2.0142000000        0.2532000000     
    H    5.2495000000        1.4980000000        0.7229000000     
    C    4.6870000000        3.4474000000        0.0712000000     
    H    3.8026000000        3.8173000000       -0.4484000000     
    H    4.7758000000        3.9581000000        1.0366000000     
    H    5.5766000000        3.6656000000       -0.5303000000     

15 17 19 25  F
17 19 25 27  F
