%chk=structure_120.chk
%NProcShared=8
#SP MP2/aug-cc-pVDZ 

Phi Psi fixed scan

0   1
    H    7.6801000000        0.0437000000       -0.9239000000     
    C    6.9758000000       -0.5499000000       -0.3326000000     
    H    7.4855000000       -0.8312000000        0.5941000000     
    H    6.7196000000       -1.4563000000       -0.8897000000     
    C    5.7728000000        0.3157000000        0.0138000000     
    O    5.8827000000        1.3570000000        0.6556000000     
    N    4.5725000000       -0.1376000000       -0.4435000000     
    H    4.4701000000       -1.0405000000       -0.8924000000     
    C    3.3268000000        0.5334000000       -0.1290000000     
    H    3.3656000000        0.8587000000        0.9192000000     
    C    3.0965000000        1.7754000000       -1.0123000000     
    H    3.0431000000        1.4891000000       -2.0679000000     
    H    2.1665000000        2.2875000000       -0.7430000000     
    H    3.9310000000        2.4665000000       -0.8708000000     
    C    2.2041000000       -0.5036000000       -0.3062000000     
    O    2.4000000000       -1.5756000000       -0.8760000000     
    N    0.9794000000       -0.1132000000        0.1452000000     
    H    0.9445000000        0.6518000000        0.8112000000     
    C   -0.1463000000       -1.0477000000        0.2579000000     
    H   -0.3622000000       -1.4317000000       -0.7445000000     
    C    0.1336000000       -2.2205000000        1.2111000000     
    H    0.3097000000       -1.8425000000        2.2225000000     
    H   -0.7270000000       -2.8988000000        1.2394000000     
    H    1.0064000000       -2.7788000000        0.8674000000     
    C   -1.3167000000       -0.2126000000        0.7972000000     
    O   -1.2077000000        0.3968000000        1.8620000000     
    N   -2.4172000000       -0.1485000000        0.0142000000     
    H   -2.5103000000       -0.6961000000       -0.8357000000     
    C   -3.6218000000        0.5539000000        0.4209000000     
    H   -3.7853000000        0.3661000000        1.4894000000     
    C   -3.5002000000        2.0741000000        0.2003000000     
    H   -3.3494000000        2.2956000000       -0.8611000000     
    H   -4.3999000000        2.5990000000        0.5402000000     
    H   -2.6458000000        2.4485000000        0.7694000000     
    C   -4.7770000000       -0.0450000000       -0.4013000000     
    O   -4.5602000000       -0.7215000000       -1.4041000000     
    N   -6.0218000000        0.2544000000        0.0514000000     
    H   -6.1079000000        0.7947000000        0.9008000000     
    C   -7.2355000000       -0.1834000000       -0.6195000000     
    H   -6.9363000000       -0.7408000000       -1.5075000000     
    H   -7.8303000000       -0.8356000000        0.0300000000     
    H   -7.8484000000        0.6736000000       -0.9210000000     

15 17 19 25  F
17 19 25 27  F
