%chk=structure_150.chk
%NProcShared=8
#SP MP2/aug-cc-pVDZ 

Phi Psi fixed scan

0   1
    H    7.8309000000       -0.3990000000       -0.3665000000     
    C    7.0074000000       -0.8972000000        0.1547000000     
    H    7.3736000000       -1.1784000000        1.1470000000     
    H    6.7341000000       -1.8028000000       -0.3956000000     
    C    5.8599000000        0.0898000000        0.3171000000     
    O    5.9977000000        1.1556000000        0.9120000000     
    N    4.6791000000       -0.2865000000       -0.2468000000     
    H    4.5431000000       -1.2024000000       -0.6593000000     
    C    3.4726000000        0.5062000000       -0.1131000000     
    H    3.4245000000        0.8919000000        0.9137000000     
    C    3.4558000000        1.7052000000       -1.0813000000     
    H    3.4874000000        1.3591000000       -2.1197000000     
    H    2.5562000000        2.3146000000       -0.9436000000     
    H    4.3330000000        2.3262000000       -0.8842000000     
    C    2.2874000000       -0.4428000000       -0.3640000000     
    O    2.4496000000       -1.5572000000       -0.8631000000     
    N    1.0685000000        0.0621000000       -0.0514000000     
    H    0.9937000000        0.9070000000        0.5078000000     
    C   -0.1565000000       -0.7264000000       -0.0834000000     
    H   -0.3197000000       -1.0835000000       -1.1068000000     
    C   -0.1229000000       -1.9354000000        0.8734000000     
    H    0.0059000000       -1.5947000000        1.9061000000     
    H   -1.0579000000       -2.5028000000        0.8070000000     
    H    0.7069000000       -2.5907000000        0.6028000000     
    C   -1.2829000000        0.2303000000        0.3364000000     
    O   -1.0676000000        1.1634000000        1.1119000000     
    N   -2.4994000000       -0.0293000000       -0.1920000000     
    H   -2.6699000000       -0.8352000000       -0.7863000000     
    C   -3.6955000000        0.6902000000        0.2101000000     
    H   -3.6517000000        0.8542000000        1.2941000000     
    C   -3.8054000000        2.0572000000       -0.4920000000     
    H   -3.8677000000        1.9260000000       -1.5771000000     
    H   -4.6920000000        2.6073000000       -0.1573000000     
    H   -2.9198000000        2.6513000000       -0.2540000000     
    C   -4.8882000000       -0.2208000000       -0.1340000000     
    O   -4.7570000000       -1.1822000000       -0.8884000000     
    N   -6.0686000000        0.1366000000        0.4337000000     
    H   -6.0809000000        0.9289000000        1.0606000000     
    C   -7.3137000000       -0.5738000000        0.1882000000     
    H   -7.0937000000       -1.3952000000       -0.4943000000     
    H   -7.7229000000       -0.9804000000        1.1197000000     
    H   -8.0592000000        0.0857000000       -0.2704000000     

15 17 19 25  F
17 19 25 27  F
