%chk=structure_210.chk
%NProcShared=8
#SP MP2/aug-cc-pVDZ 

Phi Psi fixed scan

0   1
    H    6.8484000000       -1.9397000000        1.5784000000     
    C    6.7496000000       -1.2816000000        0.7094000000     
    H    6.6151000000       -1.8926000000       -0.1884000000     
    H    7.6837000000       -0.7183000000        0.6201000000     
    C    5.6086000000       -0.3054000000        0.9606000000     
    O    5.6016000000        0.4530000000        1.9268000000     
    N    4.6063000000       -0.3281000000        0.0395000000     
    H    4.5751000000       -1.0095000000       -0.7103000000     
    C    3.4143000000        0.4860000000        0.1731000000     
    H    3.1122000000        0.4872000000        1.2276000000     
    C    3.6585000000        1.9435000000       -0.2656000000     
    H    3.9490000000        1.9821000000       -1.3208000000     
    H    2.7637000000        2.5608000000       -0.1270000000     
    H    4.4646000000        2.3616000000        0.3424000000     
    C    2.3201000000       -0.1836000000       -0.6799000000     
    O    2.6030000000       -1.0348000000       -1.5247000000     
    N    1.0634000000        0.2549000000       -0.4300000000     
    H    0.9181000000        1.0568000000        0.1756000000     
    C   -0.1356000000       -0.1459000000       -1.1611000000     
    H   -0.0700000000        0.2169000000       -2.1990000000     
    C   -0.3319000000       -1.6685000000       -1.1871000000     
    H   -0.5111000000       -2.0593000000       -0.1800000000     
    H   -1.1754000000       -1.9424000000       -1.8308000000     
    H    0.5644000000       -2.1386000000       -1.5924000000     
    C   -1.2857000000        0.6353000000       -0.4829000000     
    O   -1.0681000000        1.7301000000        0.0426000000     
    N   -2.5065000000        0.0604000000       -0.4859000000     
    H   -2.6727000000       -0.8765000000       -0.8365000000     
    C   -3.6595000000        0.6917000000        0.1319000000     
    H   -3.3436000000        1.1179000000        1.0921000000     
    C   -4.2398000000        1.8194000000       -0.7428000000     
    H   -4.5780000000        1.4211000000       -1.7048000000     
    H   -5.0892000000        2.3062000000       -0.2508000000     
    H   -3.4656000000        2.5706000000       -0.9178000000     
    C   -4.6917000000       -0.4260000000        0.3640000000     
    O   -4.6040000000       -1.5033000000       -0.2212000000     
    N   -5.6943000000       -0.1147000000        1.2249000000     
    H   -5.6710000000        0.7840000000        1.6860000000     
    C   -6.7868000000       -1.0247000000        1.5310000000     
    H   -6.6361000000       -1.9284000000        0.9399000000     
    H   -6.7923000000       -1.2885000000        2.5946000000     
    H   -7.7532000000       -0.5793000000        1.2695000000     

15 17 19 25  F
17 19 25 27  F
