%chk=structure_30.chk
%NProcShared=8
#SP MP2/aug-cc-pVDZ 

Phi Psi fixed scan

0   1
    H   -6.9953000000       -1.7034000000       -0.0868000000     
    C   -6.4773000000       -0.7586000000        0.1046000000     
    H   -6.9885000000       -0.2710000000        0.9407000000     
    H   -6.5567000000       -0.1228000000       -0.7824000000     
    C   -5.0432000000       -1.0593000000        0.5146000000     
    O   -4.7757000000       -1.7720000000        1.4782000000     
    N   -4.0786000000       -0.4905000000       -0.2622000000     
    H   -4.2981000000        0.1761000000       -0.9934000000     
    C   -2.6699000000       -0.6157000000        0.0538000000     
    H   -2.5596000000       -0.5592000000        1.1449000000     
    C   -2.0851000000       -1.9600000000       -0.4234000000     
    H   -2.1752000000       -2.0512000000       -1.5108000000     
    H   -1.0279000000       -2.0577000000       -0.1537000000     
    H   -2.6430000000       -2.7714000000        0.0504000000     
    C   -1.9545000000        0.5772000000       -0.6028000000     
    O   -2.5057000000        1.2732000000       -1.4503000000     
    N   -0.6491000000        0.7470000000       -0.2292000000     
    H   -0.3738000000        0.2825000000        0.6287000000     
    C    0.1018000000        1.9733000000       -0.5501000000     
    H    0.1700000000        2.0300000000       -1.6441000000     
    C   -0.5634000000        3.2515000000       -0.0270000000     
    H   -0.6699000000        3.2127000000        1.0626000000     
    H    0.0618000000        4.1129000000       -0.2711000000     
    H   -1.5482000000        3.3711000000       -0.4814000000     
    C    1.5375000000        1.8590000000        0.0037000000     
    O    2.1738000000        2.8460000000        0.3551000000     
    N    2.0432000000        0.5950000000        0.0659000000     
    H    1.5829000000       -0.1820000000       -0.4005000000     
    C    3.4264000000        0.3443000000        0.4309000000     
    H    4.0527000000        1.1303000000       -0.0116000000     
    C    3.6252000000        0.3628000000        1.9581000000     
    H    3.0244000000       -0.4204000000        2.4319000000     
    H    4.6754000000        0.2051000000        2.2282000000     
    H    3.3137000000        1.3362000000        2.3451000000     
    C    3.7978000000       -1.0208000000       -0.1775000000     
    O    2.9365000000       -1.7764000000       -0.6230000000     
    N    5.1229000000       -1.3171000000       -0.1626000000     
    H    5.7663000000       -0.6265000000        0.1975000000     
    C    5.6601000000       -2.5721000000       -0.6637000000     
    H    4.8201000000       -3.1700000000       -1.0184000000     
    H    6.3531000000       -2.3982000000       -1.4946000000     
    H    6.1839000000       -3.1199000000        0.1279000000     

15 17 19 25  F
17 19 25 27  F
