%chk=structure_180.chk
%NProcShared=8
#SP MP2/aug-cc-pVDZ 

Phi Psi fixed scan

0   1
    H    7.1790000000       -1.4409000000        1.5148000000     
    C    6.9394000000       -1.0414000000        0.5243000000     
    H    6.7154000000       -1.8723000000       -0.1518000000     
    H    7.8289000000       -0.5171000000        0.1613000000     
    C    5.8007000000       -0.0404000000        0.6619000000     
    O    5.8867000000        0.9466000000        1.3882000000     
    N    4.6905000000       -0.3106000000       -0.0781000000     
    H    4.5878000000       -1.1676000000       -0.6097000000     
    C    3.4933000000        0.5033000000       -0.0003000000     
    H    3.3266000000        0.7745000000        1.0499000000     
    C    3.6210000000        1.8010000000       -0.8220000000     
    H    3.7774000000        1.5697000000       -1.8810000000     
    H    2.7232000000        2.4219000000       -0.7295000000     
    H    4.4772000000        2.3691000000       -0.4501000000     
    C    2.3284000000       -0.3708000000       -0.4999000000     
    O    2.5319000000       -1.4234000000       -1.1086000000     
    N    1.0956000000        0.1263000000       -0.2515000000     
    H    0.9678000000        0.9925000000        0.2643000000     
    C   -0.1503000000       -0.5338000000       -0.6061000000     
    H   -0.2153000000       -0.6332000000       -1.6986000000     
    C   -0.2777000000       -1.9331000000        0.0282000000     
    H   -0.2843000000       -1.8583000000        1.1208000000     
    H   -1.1987000000       -2.4324000000       -0.2907000000     
    H    0.5709000000       -2.5446000000       -0.2818000000     
    C   -1.2727000000        0.4103000000       -0.1238000000     
    O   -1.0184000000        1.4730000000        0.4475000000     
    N   -2.5348000000       -0.0118000000       -0.3545000000     
    H   -2.7416000000       -0.9148000000       -0.7691000000     
    C   -3.7010000000        0.7227000000        0.1026000000     
    H   -3.4983000000        1.0950000000        1.1145000000     
    C   -4.0257000000        1.9214000000       -0.8094000000     
    H   -4.2480000000        1.5799000000       -1.8255000000     
    H   -4.8891000000        2.4828000000       -0.4353000000     
    H   -3.1636000000        2.5923000000       -0.8380000000     
    C   -4.8613000000       -0.2888000000        0.1378000000     
    O   -4.7861000000       -1.3623000000       -0.4563000000     
    N   -5.9528000000        0.1099000000        0.8397000000     
    H   -5.9171000000        0.9974000000        1.3212000000     
    C   -7.1617000000       -0.6914000000        0.9484000000     
    H   -7.0017000000       -1.6056000000        0.3761000000     
    H   -7.3662000000       -0.9528000000        1.9927000000     
    H   -8.0261000000       -0.1563000000        0.5395000000     

15 17 19 25  F
17 19 25 27  F
