%chk=structure_0.chk
%NProcShared=8
# b3lyp/6-31G* Opt=(ModRedundant) geom=nocrowd Freq Test

Phi Psi fixed scan

0   1
    H   -6.8540000000       -0.4526000000        1.3245000000     
    C   -6.4384000000       -0.7497000000        0.3566000000     
    H   -6.5967000000        0.0583000000       -0.3641000000     
    H   -6.9889000000       -1.6355000000        0.0245000000     
    C   -4.9754000000       -1.1232000000        0.5447000000     
    O   -4.6223000000       -2.0087000000        1.3187000000     
    N   -4.0868000000       -0.4160000000       -0.2090000000     
    H   -4.3681000000        0.3843000000       -0.7634000000     
    C   -2.6555000000       -0.6013000000       -0.0763000000     
    H   -2.4289000000       -0.7487000000        0.9885000000     
    C   -2.1538000000       -1.8363000000       -0.8510000000     
    H   -2.3555000000       -1.7239000000       -1.9213000000     
    H   -1.0777000000       -1.9869000000       -0.7141000000     
    H   -2.6802000000       -2.7185000000       -0.4789000000     
    C   -1.9859000000        0.6916000000       -0.5713000000     
    O   -2.6145000000        1.5549000000       -1.1745000000     
    N   -0.6299000000        0.7592000000       -0.3627000000     
    H   -0.3098000000        0.1688000000        0.3984000000     
    C    0.0895000000        2.0393000000       -0.4733000000     
    H   -0.0151000000        2.3779000000       -1.5094000000     
    C   -0.4640000000        3.1315000000        0.4589000000     
    H   -0.3976000000        2.8139000000        1.5064000000     
    H    0.1282000000        4.0409000000        0.3377000000     
    H   -1.5073000000        3.3379000000        0.2137000000     
    C    1.5953000000        1.8742000000       -0.1990000000     
    O    2.3276000000        2.8575000000       -0.1771000000     
    N    2.0406000000        0.6168000000        0.0970000000     
    H    1.5419000000       -0.2010000000       -0.2458000000     
    C    3.4606000000        0.3636000000        0.2883000000     
    H    4.0294000000        1.0109000000       -0.3930000000     
    C    3.8957000000        0.6740000000        1.7315000000     
    H    3.3631000000        0.0332000000        2.4415000000     
    H    4.9726000000        0.5260000000        1.8701000000     
    H    3.6662000000        1.7193000000        1.9526000000     
    C    3.6930000000       -1.1103000000       -0.0965000000     
    O    2.7520000000       -1.8534000000       -0.3720000000     
    N    4.9896000000       -1.5106000000       -0.1032000000     
    H    5.7044000000       -0.8302000000        0.1121000000     
    C    5.3991000000       -2.8662000000       -0.4347000000     
    H    4.4955000000       -3.4417000000       -0.6367000000     
    H    6.0382000000       -2.8769000000       -1.3249000000     
    H    5.9417000000       -3.3268000000        0.3985000000     

15 17 19 25  F
17 19 25 27  F
