%chk=structure_240.chk
%NProcShared=8
#SP MP2/aug-cc-pVDZ 

Phi Psi fixed scan

0   1
    H    7.3882000000        1.4015000000        0.1912000000     
    C    6.4364000000        1.6299000000        0.6809000000     
    H    6.4132000000        2.7096000000        0.8589000000     
    H    6.3967000000        1.1082000000        1.6420000000     
    C    5.2986000000        1.2640000000       -0.2615000000     
    O    5.1905000000        1.7655000000       -1.3776000000     
    N    4.4169000000        0.3417000000        0.2141000000     
    H    4.4655000000       -0.0181000000        1.1603000000     
    C    3.2441000000       -0.0618000000       -0.5359000000     
    H    2.8161000000        0.8285000000       -1.0127000000     
    C    3.5873000000       -1.0875000000       -1.6351000000     
    H    4.0062000000       -1.9974000000       -1.1925000000     
    H    2.7037000000       -1.3615000000       -2.2232000000     
    H    4.3255000000       -0.6447000000       -2.3082000000     
    C    2.2419000000       -0.6425000000        0.4795000000     
    O    2.6022000000       -0.9817000000        1.6058000000     
    N    0.9675000000       -0.7425000000        0.0170000000     
    H    0.8195000000       -0.6389000000       -0.9806000000     
    C   -0.1338000000       -1.4233000000        0.7123000000     
    H    0.0688000000       -2.5035000000        0.7463000000     
    C   -0.3360000000       -0.9078000000        2.1405000000     
    H   -0.5233000000        0.1718000000        2.1484000000     
    H   -1.1813000000       -1.4223000000        2.6113000000     
    H    0.5600000000       -1.0974000000        2.7308000000     
    C   -1.3430000000       -1.2429000000       -0.2334000000     
    O   -1.2562000000       -1.6231000000       -1.4030000000     
    N   -2.4224000000       -0.5883000000        0.2451000000     
    H   -2.4733000000       -0.2308000000        1.1926000000     
    C   -3.5807000000       -0.2980000000       -0.5811000000     
    H   -3.2239000000        0.0535000000       -1.5572000000     
    C   -4.4666000000       -1.5402000000       -0.7972000000     
    H   -4.8484000000       -1.9079000000        0.1608000000     
    H   -5.3196000000       -1.3105000000       -1.4455000000     
    H   -3.8720000000       -2.3245000000       -1.2718000000     
    C   -4.3546000000        0.8209000000        0.1371000000     
    O   -4.1724000000        1.0538000000        1.3300000000     
    N   -5.2529000000        1.4869000000       -0.6331000000     
    H   -5.3143000000        1.2511000000       -1.6137000000     
    C   -6.1117000000        2.5407000000       -0.1164000000     
    H   -5.8926000000        2.6498000000        0.9462000000     
    H   -5.9142000000        3.4920000000       -0.6231000000     
    H   -7.1693000000        2.2827000000       -0.2422000000     

15 17 19 25  F
17 19 25 27  F
