%chk=structure_180.chk
%NProcShared=8
#SP MP2/aug-cc-pVDZ

Single Point calculation at MP2

0   1
    H   -3.8065000000       -1.1825000000        0.5904000000     
    C   -3.1385000000       -0.3381000000        0.7659000000     
    H   -2.7401000000       -0.4100000000        1.7854000000     
    H   -3.7065000000        0.5969000000        0.6888000000     
    C   -1.9891000000       -0.4044000000       -0.2316000000     
    O   -1.7419000000       -1.3999000000       -0.8812000000     
    N   -1.3203000000        0.8174000000       -0.4117000000     
    H   -1.7108000000        1.5246000000        0.2019000000     
    C    0.1347000000        1.0074000000       -0.5054000000     
    H    0.3975000000        1.1882000000       -1.5601000000     
    C    0.5010000000        2.2699000000        0.2950000000     
    H    0.3349000000        2.1048000000        1.3657000000     
    H    1.5483000000        2.5473000000        0.1560000000     
    H   -0.1175000000        3.1136000000       -0.0323000000     
    C    0.9935000000       -0.1955000000       -0.0363000000     
    O    0.5540000000       -1.1514000000        0.5792000000     
    N    2.3470000000        0.0373000000       -0.1459000000     
    H    2.6508000000        0.7135000000       -0.8350000000     
    C    3.3033000000       -1.0010000000        0.2131000000     
    H    2.9314000000       -1.5126000000        1.1016000000     
    H    3.4352000000       -1.7467000000       -0.5822000000     
    H    4.2698000000       -0.5397000000        0.4351000000     

