%chk=structure_30.chk
%NProcShared=8
#SP MP2/aug-cc-pVDZ

Single Point calculation at MP2

0   1
    H   -3.8849000000       -1.0663000000       -0.4925000000     
    C   -3.3702000000       -0.4234000000        0.2273000000     
    H   -3.5817000000       -0.8184000000        1.2259000000     
    H   -3.7763000000        0.5901000000        0.1552000000     
    C   -1.8695000000       -0.5248000000       -0.0219000000     
    O   -1.3373000000       -1.6368000000       -0.0196000000     
    N   -1.2544000000        0.6679000000       -0.2492000000     
    H   -1.8876000000        1.4547000000       -0.2093000000     
    C    0.1436000000        1.1454000000       -0.4345000000     
    H    0.2730000000        1.3163000000       -1.5145000000     
    C    0.2485000000        2.5028000000        0.2725000000     
    H    0.0942000000        2.3889000000        1.3507000000     
    H    1.2421000000        2.9191000000        0.1101000000     
    H   -0.5004000000        3.2032000000       -0.1183000000     
    C    1.3852000000        0.2773000000       -0.0624000000     
    O    2.4373000000        0.8757000000        0.1630000000     
    N    1.3062000000       -1.0626000000       -0.1396000000     
    H    0.3806000000       -1.4970000000       -0.1836000000     
    C    2.4820000000       -1.8736000000        0.1297000000     
    H    3.3077000000       -1.5770000000       -0.5242000000     
    H    2.8224000000       -1.7642000000        1.1668000000     
    H    2.2311000000       -2.9205000000       -0.0563000000     

