%chk=structure_210.chk
%NProcShared=8
#SP MP2/aug-cc-pVDZ

Single Point calculation at MP2

0   1
    H    4.2617000000       -0.8072000000       -0.1788000000     
    C    3.2462000000       -1.0718000000       -0.4786000000     
    H    3.0263000000       -2.0768000000       -0.0985000000     
    H    3.1791000000       -1.0980000000       -1.5712000000     
    C    2.2734000000       -0.0800000000        0.1381000000     
    O    2.5192000000        0.5345000000        1.1671000000     
    N    1.0950000000        0.0858000000       -0.5613000000     
    H    0.8559000000       -0.6751000000       -1.1869000000     
    C   -0.0505000000        0.6989000000        0.1031000000     
    H    0.2468000000        0.8363000000        1.1512000000     
    C   -0.3614000000        2.0808000000       -0.4926000000     
    H   -0.7147000000        2.0075000000       -1.5271000000     
    H   -1.1075000000        2.6276000000        0.0982000000     
    H    0.5529000000        2.6802000000       -0.4850000000     
    C   -1.2089000000       -0.3230000000        0.0896000000     
    O   -0.9806000000       -1.5290000000        0.0730000000     
    N   -2.4702000000        0.1915000000        0.0580000000     
    H   -2.5895000000        1.1920000000        0.1018000000     
    C   -3.6552000000       -0.6476000000        0.1226000000     
    H   -3.3360000000       -1.6787000000       -0.0323000000     
    H   -4.1517000000       -0.5718000000        1.0981000000     
    H   -4.3676000000       -0.3653000000       -0.6600000000     

