%chk=structure_0.chk
%NProcShared=8
#SP MP2/aug-cc-pVDZ

Single Point calculation at MP2

0   1
    H    3.5578000000       -1.8449000000       -0.0003000000     
    C    3.1792000000       -0.9931000000       -0.5708000000     
    H    2.8447000000       -1.3374000000       -1.5548000000     
    H    4.0123000000       -0.2948000000       -0.7085000000     
    C    2.0887000000       -0.3079000000        0.2399000000     
    O    2.2058000000       -0.0928000000        1.4363000000     
    N    0.9581000000        0.0395000000       -0.4742000000     
    H    1.0249000000        0.0058000000       -1.4843000000     
    C   -0.0678000000        0.9200000000        0.0849000000     
    H    0.2471000000        1.1092000000        1.1161000000     
    C   -0.1556000000        2.2510000000       -0.6716000000     
    H   -0.3886000000        2.0889000000       -1.7321000000     
    H   -0.9534000000        2.8601000000       -0.2416000000     
    H    0.7922000000        2.7939000000       -0.6021000000     
    C   -1.4651000000        0.2726000000        0.1828000000     
    O   -2.4155000000        0.9253000000        0.5993000000     
    N   -1.5596000000       -1.0129000000       -0.2567000000     
    H   -0.6899000000       -1.4928000000       -0.4433000000     
    C   -2.7855000000       -1.7810000000       -0.1337000000     
    H   -3.6023000000       -1.0752000000        0.0240000000     
    H   -2.9704000000       -2.3545000000       -1.0483000000     
    H   -2.7504000000       -2.4734000000        0.7174000000     

