%chk=structure_240.chk
%NProcShared=8
#SP MP2/aug-cc-pVDZ

Single Point calculation at MP2

0   1
    H   -4.2145000000       -0.6813000000        0.6638000000     
    C   -3.1868000000       -1.0342000000        0.7739000000     
    H   -3.1343000000       -2.0498000000        0.3647000000     
    H   -2.9278000000       -1.0755000000        1.8370000000     
    C   -2.2672000000       -0.1299000000       -0.0316000000     
    O   -2.6024000000        0.3641000000       -1.0990000000     
    N   -1.0333000000        0.0991000000        0.5334000000     
    H   -0.7663000000       -0.4825000000        1.3164000000     
    C    0.0432000000        0.7073000000       -0.2450000000     
    H   -0.3396000000        0.7623000000       -1.2694000000     
    C    0.3447000000        2.1314000000        0.2404000000     
    H    0.6707000000        2.1487000000        1.2879000000     
    H    1.1097000000        2.6140000000       -0.3802000000     
    H   -0.5665000000        2.7318000000        0.1694000000     
    C    1.2259000000       -0.2859000000       -0.2889000000     
    O    1.0653000000       -1.4176000000       -0.7295000000     
    N    2.4091000000        0.1470000000        0.2386000000     
    H    2.4868000000        1.1060000000        0.5410000000     
    C    3.6099000000       -0.6712000000        0.2243000000     
    H    3.3177000000       -1.6730000000       -0.0925000000     
    H    4.3568000000       -0.2791000000       -0.4772000000     
    H    4.0562000000       -0.7211000000        1.2237000000     

