%chk=structure_285.chk
%NProcShared=8
#SP MP2/aug-cc-pVDZ

Single Point calculation at MP2

0   1
    H    3.7790000000       -1.3451000000        0.8233000000     
    C    2.9926000000       -1.5152000000        0.0797000000     
    H    2.4012000000       -2.3834000000        0.3875000000     
    H    3.4845000000       -1.7351000000       -0.8712000000     
    C    2.1819000000       -0.2317000000       -0.0821000000     
    O    2.6524000000        0.7467000000       -0.6457000000     
    N    0.9194000000       -0.2947000000        0.4547000000     
    H    0.7079000000       -1.1234000000        0.9950000000     
    C   -0.0784000000        0.7783000000        0.5973000000     
    H   -0.0297000000        1.1775000000        1.6179000000     
    C    0.0741000000        1.9408000000       -0.3911000000     
    H    0.0950000000        1.6061000000       -1.4326000000     
    H   -0.7771000000        2.6182000000       -0.2604000000     
    H    1.0004000000        2.4854000000       -0.2144000000     
    C   -1.4725000000        0.1118000000        0.5180000000     
    O   -2.1516000000       -0.0555000000        1.5247000000     
    N   -1.8649000000       -0.2725000000       -0.7293000000     
    H   -1.2107000000       -0.1612000000       -1.4905000000     
    C   -3.1163000000       -0.9644000000       -0.9817000000     
    H   -3.6939000000       -0.9429000000       -0.0568000000     
    H   -3.6832000000       -0.4646000000       -1.7750000000     
    H   -2.9488000000       -2.0093000000       -1.2724000000     

