%chk=structure_270.chk
%NProcShared=8
#SP MP2/aug-cc-pVDZ

Single Point calculation at MP2

0   1
    H    3.8270000000       -1.4607000000        0.4012000000     
    C    2.9964000000       -1.4784000000       -0.3126000000     
    H    2.4185000000       -2.3951000000       -0.1580000000     
    H    3.4294000000       -1.4931000000       -1.3164000000     
    C    2.1864000000       -0.1942000000       -0.1554000000     
    O    2.6509000000        0.8903000000       -0.4817000000     
    N    0.9337000000       -0.3833000000        0.3694000000     
    H    0.7185000000       -1.3127000000        0.7068000000     
    C   -0.0709000000        0.6225000000        0.7504000000     
    H   -0.0189000000        0.7850000000        1.8346000000     
    C    0.0751000000        1.9749000000        0.0445000000     
    H    0.1340000000        1.8764000000       -1.0443000000     
    H   -0.7887000000        2.5989000000        0.2996000000     
    H    0.9884000000        2.4796000000        0.3560000000     
    C   -1.4385000000       -0.0676000000        0.5316000000     
    O   -1.9257000000       -0.7597000000        1.4205000000     
    N   -1.9952000000        0.0744000000       -0.7016000000     
    H   -1.5128000000        0.6376000000       -1.3862000000     
    C   -3.2335000000       -0.5805000000       -1.0854000000     
    H   -3.6125000000       -1.1038000000       -0.2068000000     
    H   -3.9777000000        0.1516000000       -1.4192000000     
    H   -3.0661000000       -1.3063000000       -1.8905000000     

