%chk=structure_15.chk
%NProcShared=8
#SP MP2/aug-cc-pVDZ

Single Point calculation at MP2

0   1
    H    3.7148000000       -1.6617000000       -0.6539000000     
    C    2.9699000000       -1.5666000000        0.1387000000     
    H    3.5054000000       -1.5151000000        1.0943000000     
    H    2.3332000000       -2.4575000000        0.1464000000     
    C    2.1997000000       -0.2651000000       -0.0759000000     
    O    2.7443000000        0.7260000000       -0.5304000000     
    N    0.8616000000       -0.3506000000        0.2766000000     
    H    0.6629000000       -1.1585000000        0.8560000000     
    C   -0.0862000000        0.7544000000        0.5161000000     
    H   -0.1173000000        0.9623000000        1.5968000000     
    C    0.2530000000        2.0610000000       -0.2107000000     
    H    0.3518000000        1.8998000000       -1.2875000000     
    H   -0.5734000000        2.7526000000       -0.0334000000     
    H    1.1860000000        2.4890000000        0.1519000000     
    C   -1.5363000000        0.3426000000        0.1545000000     
    O   -2.4341000000        1.1734000000        0.1639000000     
    N   -1.7718000000       -0.9989000000       -0.0063000000     
    H   -0.9907000000       -1.5434000000       -0.3489000000     
    C   -3.1049000000       -1.4585000000       -0.3742000000     
    H   -3.8357000000       -0.9184000000        0.2294000000     
    H   -3.3345000000       -1.2742000000       -1.4319000000     
    H   -3.1838000000       -2.5298000000       -0.1706000000     

