%chk=structure_45.chk
%NProcShared=8
#SP MP2/aug-cc-pVDZ

Single Point calculation at MP2

0   1
    H   -3.2918000000       -1.8993000000        0.6769000000     
    C   -3.0789000000       -1.1588000000       -0.0967000000     
    H   -3.8963000000       -0.4276000000       -0.0950000000     
    H   -3.0585000000       -1.6492000000       -1.0757000000     
    C   -1.7728000000       -0.4552000000        0.2468000000     
    O   -1.4052000000       -0.2762000000        1.3971000000     
    N   -1.0201000000       -0.0558000000       -0.8414000000     
    H   -1.5033000000       -0.0676000000       -1.7313000000     
    C    0.0484000000        0.9555000000       -0.7207000000     
    H    0.3512000000        1.1650000000       -1.7547000000     
    C   -0.3934000000        2.2610000000       -0.0581000000     
    H   -0.7061000000        2.0814000000        0.9712000000     
    H    0.4428000000        2.9637000000       -0.0436000000     
    H   -1.2235000000        2.7056000000       -0.6186000000     
    C    1.3093000000        0.3671000000       -0.0410000000     
    O    1.9875000000        1.0238000000        0.7352000000     
    N    1.6745000000       -0.8642000000       -0.5107000000     
    H    0.9467000000       -1.3985000000       -0.9669000000     
    C    2.7931000000       -1.5893000000        0.0686000000     
    H    3.5152000000       -0.8571000000        0.4323000000     
    H    2.4867000000       -2.2217000000        0.9126000000     
    H    3.2639000000       -2.2172000000       -0.6942000000     

