%chk=structure_60.chk
%NProcShared=8
#SP MP2/aug-cc-pVDZ

Single Point calculation at MP2

0   1
    H    3.3934000000       -1.6556000000       -0.8621000000     
    C    3.2008000000       -0.5863000000       -0.7415000000     
    H    3.1561000000       -0.1139000000       -1.7277000000     
    H    4.0453000000       -0.1622000000       -0.1873000000     
    C    1.9362000000       -0.4027000000        0.0801000000     
    O    1.7434000000       -1.0212000000        1.1266000000     
    N    1.0114000000        0.4657000000       -0.4228000000     
    H    1.2263000000        0.9697000000       -1.2729000000     
    C   -0.1013000000        0.9748000000        0.3867000000     
    H    0.1294000000        0.6850000000        1.4172000000     
    C   -0.2157000000        2.4917000000        0.2686000000     
    H   -0.4312000000        2.7901000000       -0.7628000000     
    H   -1.0427000000        2.8548000000        0.8837000000     
    H    0.7114000000        2.9713000000        0.5988000000     
    C   -1.4216000000        0.2781000000       -0.0226000000     
    O   -2.3864000000        0.8938000000       -0.4610000000     
    N   -1.3791000000       -1.0727000000        0.1463000000     
    H   -0.5392000000       -1.4678000000        0.5558000000     
    C   -2.4930000000       -1.9435000000       -0.1775000000     
    H   -3.2923000000       -1.3196000000       -0.5805000000     
    H   -2.2075000000       -2.6907000000       -0.9279000000     
    H   -2.8620000000       -2.4655000000        0.7137000000     

