%chk=structure_300.chk
NProcShared=8
# b3lyp/6-31G* Opt=(ModRedundant, maxcycles=1000, calcfc) geom=nocrowd

Phi Psi fixed scan

0   1
    H    2.5153000000        1.0000000000        1.9230000000     
    C    2.5153000000        2.0900000000        1.9230000000     
    H    2.5153000000        2.4538000000        2.9505000000     
    H    1.6255000000        2.4539000000        1.4093000000     
    C    3.7515000000        2.6408000000        1.2093000000     
    O    4.5856000000        1.8774000000        0.7277000000     
    N    3.8623000000        3.9697000000        1.1453000000     
    H    3.1502000000        4.5562000000        1.5565000000     
    C    4.9863000000        4.6139000000        0.4964000000     
    H    5.9112000000        4.3155000000        0.9898000000     
    C    5.0700000000        4.2208000000       -0.9747000000     
    H    4.1545000000        4.5214000000       -1.4843000000     
    H    5.9225000000        4.7189000000       -1.4365000000     
    H    5.1929000000        3.1409000000       -1.0563000000     
    C    4.8645000000        6.1294000000        0.5667000000     
    O    3.9015000000        6.6527000000        1.1227000000     
    N    5.8460000000        6.8349000000        0.0000000000     
    H    6.6176000000        6.3592000000       -0.4455000000     
    C    5.8461000000        8.2839000000        0.0000000000     
    H    5.3323000000        8.6477000000       -0.8898000000     
    C    5.1347000000        8.8329000000        1.2322000000     
    H    5.6431000000        8.4846000000        2.1312000000     
    H    5.1499000000        9.9224000000        1.2058000000     
    H    4.1019000000        8.4846000000        1.2414000000     
    C    7.2660000000        8.8318000000        0.0000000000     
    O    7.6573000000        9.5503000000       -0.9171000000     
    N    8.0386000000        8.4902000000        1.0338000000     
    H    7.6716000000        7.8967000000        1.7640000000     
    C    9.4087000000        8.9471000000        1.1497000000     
    H    9.9824000000        8.5986000000        0.2909000000     
    C    9.4775000000       10.4699000000        1.1962000000     
    H    8.9152000000       10.8334000000        2.0563000000     
    H   10.5174000000       10.7846000000        1.2833000000     
    H    9.0492000000       10.8815000000        0.2824000000     
    C   10.0590000000        8.4131000000        2.4180000000     
    O    9.4267000000        7.6930000000        3.1875000000     
    N   11.3274000000        8.7685000000        2.6346000000     
    H   11.8055000000        9.3628000000        1.9725000000     
    C   12.0574000000        8.3257000000        3.8053000000     
    H   11.4130000000        7.6969000000        4.4196000000     
    H   12.9320000000        7.7544000000        3.4942000000     
    H   12.3772000000        9.1923000000        4.3841000000     

15 17 19 25 F
17 19 25 27 F
