%chk=structure_150.chk
%NProcShared=8
#SP MP2/aug-cc-pVDZ 

Phi Psi fixed scan

0   1
    H    7.6669000000       -0.0962000000       -1.1746000000     
    C    6.9760000000       -0.7349000000       -0.6154000000     
    H    7.5382000000       -1.1729000000        0.2152000000     
    H    6.6232000000       -1.5371000000       -1.2708000000     
    C    5.8577000000        0.1286000000       -0.0488000000     
    O    6.0819000000        1.0689000000        0.7091000000     
    N    4.5992000000       -0.2085000000       -0.4441000000     
    H    4.4088000000       -1.0312000000       -1.0048000000     
    C    3.4225000000        0.4695000000        0.0632000000     
    H    3.5631000000        0.6516000000        1.1362000000     
    C    3.1892000000        1.8250000000       -0.6326000000     
    H    3.0329000000        1.6821000000       -1.7071000000     
    H    2.3159000000        2.3411000000       -0.2183000000     
    H    4.0699000000        2.4535000000       -0.4800000000     
    C    2.2347000000       -0.4833000000       -0.1484000000     
    O    2.3133000000       -1.4591000000       -0.8964000000     
    N    1.1059000000       -0.1615000000        0.5263000000     
    H    1.0510000000        0.6615000000        1.1166000000     
    C   -0.1450000000       -0.8840000000        0.3596000000     
    H   -0.1837000000       -1.2478000000       -0.6725000000     
    C   -0.2543000000       -2.0850000000        1.3169000000     
    H   -0.2131000000       -1.7479000000        2.3577000000     
    H   -1.1946000000       -2.6257000000        1.1609000000     
    H    0.5768000000       -2.7706000000        1.1307000000     
    C   -1.2721000000        0.1262000000        0.6176000000     
    O   -1.1156000000        1.0640000000        1.4017000000     
    N   -2.4242000000       -0.0955000000       -0.0538000000     
    H   -2.5492000000       -0.8963000000       -0.6657000000     
    C   -3.6234000000        0.6933000000        0.1683000000     
    H   -3.7155000000        0.8838000000        1.2449000000     
    C   -3.5670000000        2.0450000000       -0.5694000000     
    H   -3.4861000000        1.8874000000       -1.6497000000     
    H   -4.4635000000        2.6432000000       -0.3719000000     
    H   -2.6941000000        2.6037000000       -0.2231000000     
    C   -4.8055000000       -0.1644000000       -0.3177000000     
    O   -4.6274000000       -1.1365000000       -1.0481000000     
    N   -6.0295000000        0.2533000000        0.0963000000     
    H   -6.0818000000        1.0437000000        0.7234000000     
    C   -7.2658000000       -0.4031000000       -0.2985000000     
    H   -7.0049000000       -1.2055000000       -0.9892000000     
    H   -7.7799000000       -0.8309000000        0.5698000000     
    H   -7.9395000000        0.3005000000       -0.7999000000     

15 17 19 25  F
17 19 25 27  F
