%chk=structure_180.chk
%NProcShared=8
#SP MP2/aug-cc-pVDZ 

Phi Psi fixed scan

0   1
    H   -7.8367000000       -0.1456000000        0.6023000000     
    C   -7.0604000000       -0.7916000000        0.1809000000     
    H   -7.4943000000       -1.2974000000       -0.6876000000     
    H   -6.7773000000       -1.5417000000        0.9257000000     
    C   -5.8994000000        0.0757000000       -0.2854000000     
    O   -6.0519000000        0.9871000000       -1.0947000000     
    N   -4.6878000000       -0.2267000000        0.2571000000     
    H   -4.5504000000       -1.0272000000        0.8634000000     
    C   -3.4711000000        0.4543000000       -0.1402000000     
    H   -3.4916000000        0.5972000000       -1.2278000000     
    C   -3.3354000000        1.8363000000        0.5299000000     
    H   -3.2981000000        1.7311000000        1.6195000000     
    H   -2.4294000000        2.3560000000        0.1984000000     
    H   -4.2028000000        2.4431000000        0.2592000000     
    C   -2.3002000000       -0.4667000000        0.2374000000     
    O   -2.4462000000       -1.4167000000        1.0080000000     
    N   -1.1099000000       -0.1553000000       -0.3326000000     
    H   -0.9834000000        0.7306000000       -0.8143000000     
    C    0.1332000000       -0.7691000000        0.1050000000     
    H    0.0635000000       -0.9623000000        1.1837000000     
    C    0.3889000000       -2.1068000000       -0.6120000000     
    H    0.4828000000       -1.9556000000       -1.6923000000     
    H    1.2989000000       -2.5958000000       -0.2479000000     
    H   -0.4554000000       -2.7739000000       -0.4205000000     
    C    1.2443000000        0.2703000000       -0.1426000000     
    O    0.9962000000        1.3703000000       -0.6415000000     
    N    2.4937000000       -0.1115000000        0.2026000000     
    H    2.7010000000       -1.0334000000        0.5728000000     
    C    3.6576000000        0.7290000000       -0.0150000000     
    H    3.5685000000        1.1893000000       -1.0068000000     
    C    3.7723000000        1.8456000000        1.0409000000     
    H    3.8793000000        1.4149000000        2.0417000000     
    H    4.6374000000        2.4890000000        0.8457000000     
    H    2.8696000000        2.4607000000        1.0105000000     
    C    4.8793000000       -0.2061000000        0.0257000000     
    O    4.8042000000       -1.3271000000        0.5241000000     
    N    6.0208000000        0.3132000000       -0.4946000000     
    H    5.9844000000        1.2327000000       -0.9116000000     
    C    7.2878000000       -0.4009000000       -0.4968000000     
    H    7.1234000000       -1.3622000000       -0.0092000000     
    H    7.6397000000       -0.5731000000       -1.5202000000     
    H    8.0536000000        0.1567000000        0.0541000000     

15 17 19 25  F
17 19 25 27  F
