%chk=structure_120.chk
%NProcShared=8
#SP MP2/aug-cc-pVDZ 

Phi Psi fixed scan

0   1
    H   -7.3569000000       -0.8051000000       -1.5141000000     
    C   -6.7810000000        0.0597000000       -1.1699000000     
    H   -7.4649000000        0.7027000000       -0.6071000000     
    H   -6.4088000000        0.6087000000       -2.0403000000     
    C   -5.6812000000       -0.4227000000       -0.2349000000     
    O   -5.9280000000       -1.0444000000        0.7952000000     
    N   -4.4098000000       -0.1249000000       -0.6219000000     
    H   -4.2104000000        0.4585000000       -1.4264000000     
    C   -3.2591000000       -0.4520000000        0.1965000000     
    H   -3.5118000000       -0.2475000000        1.2451000000     
    C   -2.8635000000       -1.9367000000        0.0741000000     
    H   -2.5874000000       -2.1753000000       -0.9584000000     
    H   -2.0172000000       -2.1792000000        0.7263000000     
    H   -3.7175000000       -2.5519000000        0.3676000000     
    C   -2.1167000000        0.4749000000       -0.2514000000     
    O   -2.1751000000        1.1116000000       -1.3031000000     
    N   -1.0382000000        0.5038000000        0.5715000000     
    H   -1.0646000000        0.0438000000        1.4736000000     
    C    0.1342000000        1.3367000000        0.3138000000     
    H    0.2267000000        1.4165000000       -0.7728000000     
    C   -0.0018000000        2.7378000000        0.9252000000     
    H   -0.0864000000        2.6666000000        2.0137000000     
    H    0.8747000000        3.3510000000        0.6852000000     
    H   -0.8910000000        3.2306000000        0.5222000000     
    C    1.3276000000        0.5893000000        0.9243000000     
    O    1.3304000000        0.2961000000        2.1209000000     
    N    2.3184000000        0.2430000000        0.0714000000     
    H    2.3247000000        0.5362000000       -0.9005000000     
    C    3.5270000000       -0.4291000000        0.5147000000     
    H    3.8372000000        0.0154000000        1.4687000000     
    C    3.2987000000       -1.9384000000        0.7254000000     
    H    3.0003000000       -2.4149000000       -0.2140000000     
    H    4.2060000000       -2.4314000000        1.0919000000     
    H    2.5065000000       -2.0777000000        1.4650000000     
    C    4.5956000000       -0.1648000000       -0.5609000000     
    O    4.2875000000        0.2470000000       -1.6769000000     
    N    5.8709000000       -0.4445000000       -0.1864000000     
    H    6.0370000000       -0.7586000000        0.7594000000     
    C    7.0078000000       -0.3066000000       -1.0826000000     
    H    6.6283000000        0.0511000000       -2.0402000000     
    H    7.7312000000        0.4167000000       -0.6899000000     
    H    7.5113000000       -1.2686000000       -1.2312000000     

15 17 19 25  F
17 19 25 27  F
