%chk=structure_300.chk
%NProcShared=8
#SP MP2/aug-cc-pVDZ 

Phi Psi fixed scan

0   1
    H   -7.1494000000        1.3161000000        0.1405000000     
    C   -6.4684000000        0.8504000000       -0.5788000000     
    H   -6.7183000000        1.2476000000       -1.5675000000     
    H   -6.6329000000       -0.2314000000       -0.5754000000     
    C   -5.0414000000        1.2529000000       -0.2363000000     
    O   -4.6818000000        2.4272000000       -0.2167000000     
    N   -4.1948000000        0.2258000000        0.0531000000     
    H   -4.4713000000       -0.7458000000       -0.0286000000     
    C   -2.7907000000        0.4437000000        0.3380000000     
    H   -2.4163000000        1.2150000000       -0.3473000000     
    C   -2.5617000000        0.9248000000        1.7850000000     
    H   -2.9122000000        0.1722000000        2.4988000000     
    H   -1.5010000000        1.1209000000        1.9797000000     
    H   -3.1197000000        1.8518000000        1.9382000000     
    C   -2.0691000000       -0.8868000000        0.0711000000     
    O   -2.6811000000       -1.9498000000       -0.0124000000     
    N   -0.7171000000       -0.8034000000       -0.0473000000     
    H   -0.2697000000        0.0955000000        0.0721000000     
    C    0.1291000000       -2.0006000000       -0.1480000000     
    H   -0.3178000000       -2.7706000000        0.4840000000     
    C    0.2145000000       -2.5233000000       -1.5906000000     
    H    0.6281000000       -1.7706000000       -2.2710000000     
    H    0.8466000000       -3.4169000000       -1.6354000000     
    H   -0.7883000000       -2.7879000000       -1.9362000000     
    C    1.5076000000       -1.7042000000        0.4638000000     
    O    1.9460000000       -2.3321000000        1.4207000000     
    N    2.1955000000       -0.6882000000       -0.1297000000     
    H    1.8673000000       -0.2141000000       -0.9652000000     
    C    3.4985000000       -0.2482000000        0.3355000000     
    H    3.4674000000       -0.1909000000        1.4304000000     
    C    4.6240000000       -1.2173000000       -0.0761000000     
    H    4.6897000000       -1.2852000000       -1.1670000000     
    H    5.5945000000       -0.8852000000        0.3094000000     
    H    4.4076000000       -2.2069000000        0.3333000000     
    C    3.7213000000        1.1511000000       -0.2642000000     
    O    3.0702000000        1.5358000000       -1.2338000000     
    N    4.6916000000        1.8891000000        0.3330000000     
    H    5.1592000000        1.5038000000        1.1416000000     
    C    5.0811000000        3.2116000000       -0.1305000000     
    H    4.4726000000        3.4449000000       -1.0047000000     
    H    4.9025000000        3.9670000000        0.6430000000     
    H    6.1400000000        3.2332000000       -0.4116000000     

15 17 19 25  F
17 19 25 27  F
