%chk=structure_30.chk
%NProcShared=8
#SP MP2/aug-cc-pVDZ 

Phi Psi fixed scan

0   1
    H   -6.7618000000       -1.9542000000       -0.4493000000     
    C   -6.3477000000       -0.9437000000       -0.3786000000     
    H   -7.0506000000       -0.3443000000        0.2083000000     
    H   -6.2694000000       -0.5200000000       -1.3846000000     
    C   -5.0205000000       -1.0082000000        0.3625000000     
    O   -4.9304000000       -1.4566000000        1.5022000000     
    N   -3.9403000000       -0.5408000000       -0.3243000000     
    H   -4.0252000000       -0.1024000000       -1.2337000000     
    C   -2.6208000000       -0.4795000000        0.2724000000     
    H   -2.7376000000       -0.1853000000        1.3235000000     
    C   -1.8985000000       -1.8413000000        0.2246000000     
    H   -1.7684000000       -2.1677000000       -0.8123000000     
    H   -0.9116000000       -1.7929000000        0.6977000000     
    H   -2.5056000000       -2.5778000000        0.7569000000     
    C   -1.8317000000        0.5960000000       -0.4890000000     
    O   -2.1843000000        0.9962000000       -1.5946000000     
    N   -0.6847000000        1.0191000000        0.1227000000     
    H   -0.5706000000        0.8016000000        1.1053000000     
    C    0.1178000000        2.1192000000       -0.4173000000     
    H    0.0235000000        2.0414000000       -1.5063000000     
    C   -0.3889000000        3.4943000000        0.0270000000     
    H   -0.3737000000        3.5843000000        1.1191000000     
    H    0.2537000000        4.2772000000       -0.3814000000     
    H   -1.4130000000        3.6417000000       -0.3271000000     
    C    1.6088000000        1.9349000000       -0.0679000000     
    O    2.3645000000        2.8949000000        0.0517000000     
    N    2.0208000000        0.6470000000        0.0548000000     
    H    1.3931000000       -0.1286000000       -0.1300000000     
    C    3.4127000000        0.2908000000        0.2522000000     
    H    4.0299000000        0.9170000000       -0.4054000000     
    C    3.8665000000        0.5147000000        1.7079000000     
    H    3.2843000000       -0.1135000000        2.3902000000     
    H    4.9278000000        0.2735000000        1.8353000000     
    H    3.7156000000        1.5649000000        1.9690000000     
    C    3.5461000000       -1.1881000000       -0.1519000000     
    O    2.5604000000       -1.9170000000       -0.2407000000     
    N    4.8183000000       -1.6126000000       -0.3680000000     
    H    5.5673000000       -0.9374000000       -0.3054000000     
    C    5.1480000000       -2.9864000000       -0.7117000000     
    H    4.2155000000       -3.5510000000       -0.7346000000     
    H    5.6251000000       -3.0416000000       -1.6967000000     
    H    5.8190000000       -3.4281000000        0.0338000000     

15 17 19 25  F
17 19 25 27  F
