%chk=structure_0.chk
%NProcShared=8
#SP MP2/aug-cc-pVDZ 

Phi Psi fixed scan

0   1
    H   -6.8602000000       -1.7598000000       -0.4153000000     
    C   -6.4096000000       -0.7933000000       -0.1689000000     
    H   -7.0265000000       -0.3362000000        0.6110000000     
    H   -6.4268000000       -0.1559000000       -1.0582000000     
    C   -5.0129000000       -1.0299000000        0.3864000000     
    O   -4.8153000000       -1.7113000000        1.3886000000     
    N   -3.9979000000       -0.4405000000       -0.3063000000     
    H   -4.1669000000        0.1845000000       -1.0854000000     
    C   -2.6200000000       -0.5226000000        0.1355000000     
    H   -2.6112000000       -0.4559000000        1.2313000000     
    C   -1.9547000000       -1.8522000000       -0.2756000000     
    H   -1.9504000000       -1.9541000000       -1.3658000000     
    H   -0.9213000000       -1.9153000000        0.0824000000     
    H   -2.5265000000       -2.6768000000        0.1572000000     
    C   -1.8801000000        0.6802000000       -0.4684000000     
    O   -2.3432000000        1.3209000000       -1.4063000000     
    N   -0.6430000000        0.9272000000        0.0674000000     
    H   -0.4745000000        0.5449000000        0.9915000000     
    C    0.1114000000        2.1333000000       -0.2816000000     
    H   -0.1375000000        2.3451000000       -1.3257000000     
    C   -0.2828000000        3.3476000000        0.5718000000     
    H   -0.1138000000        3.1498000000        1.6374000000     
    H    0.3234000000        4.2093000000        0.2833000000     
    H   -1.3405000000        3.5812000000        0.4209000000     
    C    1.6334000000        1.9129000000       -0.2207000000     
    O    2.4048000000        2.8433000000       -0.4349000000     
    N    2.0494000000        0.6680000000        0.1374000000     
    H    1.4156000000       -0.1230000000        0.0734000000     
    C    3.4549000000        0.3039000000        0.1230000000     
    H    3.9385000000        0.7983000000       -0.7305000000     
    C    4.1685000000        0.7501000000        1.4125000000     
    H    3.7242000000        0.2619000000        2.2859000000     
    H    5.2371000000        0.5087000000        1.3855000000     
    H    4.0640000000        1.8330000000        1.5168000000     
    C    3.5072000000       -1.2237000000       -0.0688000000     
    O    2.4936000000       -1.9151000000        0.0174000000     
    N    4.7410000000       -1.7312000000       -0.3212000000     
    H    5.5162000000       -1.0892000000       -0.4074000000     
    C    4.9915000000       -3.1512000000       -0.5091000000     
    H    4.0421000000       -3.6715000000       -0.3797000000     
    H    5.3768000000       -3.3531000000       -1.5150000000     
    H    5.7108000000       -3.5239000000        0.2289000000     

15 17 19 25  F
17 19 25 27  F
