%chk=structure_210.chk
%NProcShared=8
#SP MP2/aug-cc-pVDZ 

Phi Psi fixed scan

0   1
    H   -7.3505000000        1.3270000000        1.2029000000     
    C   -7.0258000000        0.7839000000        0.3098000000     
    H   -6.8457000000        1.4999000000       -0.4979000000     
    H   -7.8436000000        0.1171000000        0.0194000000     
    C   -5.8078000000       -0.0581000000        0.6630000000     
    O   -5.8428000000       -0.9194000000        1.5380000000     
    N   -4.6838000000        0.2064000000       -0.0587000000     
    H   -4.6376000000        0.9631000000       -0.7311000000     
    C   -3.4238000000       -0.4623000000        0.2004000000     
    H   -3.2961000000       -0.5543000000        1.2858000000     
    C   -3.3795000000       -1.8746000000       -0.4186000000     
    H   -3.5064000000       -1.8189000000       -1.5049000000     
    H   -2.4302000000       -2.3794000000       -0.2057000000     
    H   -4.1926000000       -2.4683000000        0.0062000000     
    C   -2.3149000000        0.4292000000       -0.3780000000     
    O   -2.5595000000        1.3198000000       -1.1912000000     
    N   -1.0593000000        0.1636000000        0.0760000000     
    H   -0.8960000000       -0.7407000000        0.5089000000     
    C    0.1122000000        0.6958000000       -0.6176000000     
    H   -0.0995000000        0.7015000000       -1.6970000000     
    C    0.4133000000        2.1362000000       -0.1830000000     
    H    0.6991000000        2.1824000000        0.8728000000     
    H    1.2105000000        2.5826000000       -0.7888000000     
    H   -0.4853000000        2.7391000000       -0.3316000000     
    C    1.2436000000       -0.3266000000       -0.3835000000     
    O    0.9825000000       -1.5196000000       -0.2100000000     
    N    2.5049000000        0.1551000000       -0.3509000000     
    H    2.7173000000        1.1441000000       -0.4206000000     
    C    3.6571000000       -0.7021000000       -0.1352000000     
    H    3.4137000000       -1.4067000000        0.6695000000     
    C    4.0300000000       -1.5030000000       -1.3978000000     
    H    4.2901000000       -0.8249000000       -2.2170000000     
    H    4.8834000000       -2.1639000000       -1.2100000000     
    H    3.1765000000       -2.1163000000       -1.6970000000     
    C    4.8079000000        0.2219000000        0.2999000000     
    O    4.7639000000        1.4325000000        0.0923000000     
    N    5.8586000000       -0.4047000000        0.8891000000     
    H    5.7964000000       -1.4002000000        1.0498000000     
    C    7.0581000000        0.2952000000        1.3210000000     
    H    6.9339000000        1.3475000000        1.0638000000     
    H    7.1973000000        0.2046000000        2.4041000000     
    H    7.9462000000       -0.0980000000        0.8137000000     

15 17 19 25  F
17 19 25 27  F
