%chk=structure_315.chk
%NProcShared=8
# b3lyp/6-31G* Opt=(ModRedundant, maxcycles=1000, calcfc) geom=nocrowd

Phi Psi fixed scan

0   1
    H    1.3513000000        2.3068000000        1.9013000000     
    C    1.6731000000        2.7486000000        0.9582000000     
    H    0.9598000000        3.5143000000        0.6531000000     
    H    1.7242000000        1.9746000000        0.1925000000     
    C    3.0539000000        3.3932000000        1.0948000000     
    O    3.6506000000        3.3681000000        2.1689000000     
    N    3.5554000000        3.9697000000       -0.0000000000     
    H    3.0267000000        3.9647000000       -0.8606000000     
    C    4.8533000000        4.6139000000       -0.0000000000     
    H    5.4076000000        4.3155000000        0.8898000000     
    C    5.6613000000        4.2208000000       -1.2322000000     
    H    5.1233000000        4.5214000000       -2.1312000000     
    H    6.6305000000        4.7189000000       -1.2058000000     
    H    5.8085000000        3.1409000000       -1.2414000000     
    C    4.7127000000        6.1294000000        0.0000000000     
    O    5.4006000000        6.8197000000        0.7488000000     
    N    3.8170000000        6.6467000000       -0.8441000000     
    H    3.2747000000        6.0380000000       -1.4403000000     
    C    3.5895000000        8.0746000000       -0.9387000000     
    H    4.2439000000        8.5944000000       -0.2390000000     
    H    3.8031000000        8.4106000000       -1.9534000000     
    H    2.5501000000        8.2943000000       -0.6950000000     

5 7 9 15 F
7 9 15 17 F
