%chk=240.chk
NProcShared=8
#P b3lyp/6-31G* Opt=(AddRedundant, Tight) Freq SCF(Conver=6)

Phi Psi scan for tetralanine: Phi: 300.00 Psi: 240.00

0   1
    H    2.5358000000        4.7383000000       -3.9769000000     
    C    3.0039000000        4.0422000000       -3.2809000000     
    H    3.7897000000        3.4878000000       -3.7941000000     
    H    2.2551000000        3.3454000000       -2.9043000000     
    C    3.6234000000        4.7828000000       -2.0941000000     
    O    3.5539000000        6.0075000000       -2.0180000000     
    N    4.2284000000        4.0321000000       -1.1707000000     
    H    4.2597000000        3.0282000000       -1.2773000000     
    C    4.8533000000        4.6139000000       -0.0000000000     
    H    4.3792000000        4.2201000000        0.8991000000     
    C    6.3413000000        4.2839000000        0.0493000000     
    H    6.8315000000        4.6798000000       -0.8402000000     
    H    6.7844000000        4.7332000000        0.9380000000     
    H    6.4732000000        3.2025000000        0.0852000000     
    C    4.7127000000        6.1294000000        0.0000000000     
    O    3.6006000000        6.6527000000        0.0000000000     
    N    5.8460000000        6.8349000000        0.0000000000     
    H    6.7370000000        6.3592000000       -0.0000000000     
    C    5.8461000000        8.2839000000        0.0000000000     
    H    5.3323000000        8.6477000000       -0.8898000000     
    C    5.1347000000        8.8329000000        1.2322000000     
    H    5.6431000000        8.4846000000        2.1312000000     
    H    5.1499000000        9.9224000000        1.2058000000     
    H    4.1019000000        8.4846000000        1.2414000000     
    C    7.2660000000        8.8318000000        0.0000000000     
    O    8.2292000000        8.0684000000       -0.0000000000     
    N    7.3940000000       10.1607000000        0.0000000000     
    H    6.5717000000       10.7472000000        0.0000000000     
    C    8.6919000000       10.8049000000       -0.0000000000     
    H    9.2462000000       10.5065000000        0.8898000000     
    C    9.4999000000       10.4118000000       -1.2322000000     
    H    8.9619000000       10.7124000000       -2.1312000000     
    H   10.4691000000       10.9099000000       -1.2058000000     
    H    9.6471000000        9.3319000000       -1.2414000000     
    C    8.5513000000       12.3204000000        0.0000000000     
    O    7.4392000000       12.8437000000        0.0000000000     
    N    9.6846000000       13.0259000000        0.0000000000     
    H   10.5756000000       12.5502000000        0.0000000000     
    C    9.6846000000       14.4749000000        0.0000000000     
    H    8.6572000000       14.8387000000        0.0000000000     
    H   10.1984000000       14.8387000000        0.8898000000     
    H   10.1984000000       14.8387000000       -0.8898000000     

5 7 9 15 F
17 17 17 17 F
