%chk=structure_0.chk
%NProcShared=8
# b3lyp/6-31G* Opt=(ModRedundant, maxcycles=1000, calcfc) geom=nocrowd

Phi Psi fixed scan

0   1
    H    2.0000000000        1.0000000000       -0.0000000000     
    C    2.0000000000        2.0900000000        0.0000000000     
    H    1.4863000000        2.4539000000        0.8898000000     
    H    1.4863000000        2.4539000000       -0.8898000000     
    C    3.4274000000        2.6408000000       -0.0000000000     
    O    4.3906000000        1.8774000000       -0.0000000000     
    N    3.5554000000        3.9697000000       -0.0000000000     
    H    2.7331000000        4.5562000000       -0.0000000000     
    C    4.8533000000        4.6139000000       -0.0000000000     
    H    5.4076000000        4.3155000000        0.8898000000     
    C    5.6613000000        4.2208000000       -1.2322000000     
    H    5.1233000000        4.5214000000       -2.1312000000     
    H    6.6305000000        4.7189000000       -1.2058000000     
    H    5.8085000000        3.1409000000       -1.2414000000     
    C    4.7127000000        6.1294000000        0.0000000000     
    O    5.7095000000        6.8483000000        0.0000000000     
    N    3.4689000000        6.6144000000        0.0000000000     
    H    2.6806000000        5.9829000000        0.0000000000     
    C    3.2023000000        8.0386000000        0.0000000000     
    H    4.1453000000        8.5853000000        0.0000000000     
    H    2.6304000000        8.3018000000       -0.8898000000     
    H    2.6304000000        8.3018000000        0.8898000000     

5 7 9 15 F
7 9 15 17 F
