%chk=structure_270.chk
NProcShared=8
#P b3lyp/6-31G* Opt=(AddRedundant, Tight, MaxCycles=1000) Freq SCF(Conver=6)  geom=nocrowd

Phi Psi fixed scan

0   1
    H    3.9230000000        1.0000000000        3.3308000000     
    C    3.9230000000        2.0900000000        3.3308000000     
    H    4.4368000000        2.4538000000        4.2206000000     
    H    2.8956000000        2.4538000000        3.3308000000     
    C    4.6367000000        2.6408000000        2.0946000000     
    O    5.1183000000        1.8774000000        1.2605000000     
    N    4.7007000000        3.9696000000        1.9838000000     
    H    4.2896000000        4.5561000000        2.6959000000     
    C    5.3497000000        4.6139000000        0.8598000000     
    H    6.3974000000        4.3155000000        0.8246000000     
    C    4.6866000000        4.2208000000       -0.4561000000     
    H    3.6390000000        4.5214000000       -0.4396000000     
    H    5.1940000000        4.7189000000       -1.2822000000     
    H    4.7522000000        3.1409000000       -0.5882000000     
    C    5.2794000000        6.1294000000        0.9815000000     
    O    4.7233000000        6.6527000000        1.9446000000     
    N    5.8460000000        6.8349000000        0.0000000000     
    H    6.2915000000        6.3592000000       -0.7716000000     
    C    5.8461000000        8.2839000000        0.0000000000     
    H    5.3323000000        8.6477000000       -0.8898000000     
    C    5.1347000000        8.8329000000        1.2322000000     
    H    5.6431000000        8.4846000000        2.1312000000     
    H    5.1499000000        9.9224000000        1.2058000000     
    H    4.1019000000        8.4846000000        1.2414000000     
    C    7.2660000000        8.8318000000        0.0000000000     
    O    7.8479000000        9.0564000000       -1.0589000000     
    N    7.8237000000        9.0470000000        1.1937000000     
    H    7.3050000000        8.8468000000        2.0369000000     
    C    9.1698000000        9.5664000000        1.3275000000     
    H    9.8724000000        8.8837000000        0.8496000000     
    C    9.2975000000       10.9364000000        0.6699000000     
    H    8.6065000000       11.6334000000        1.1440000000     
    H   10.3179000000       11.3018000000        0.7857000000     
    H    9.0596000000       10.8545000000       -0.3907000000     
    C    9.5564000000        9.7156000000        2.7920000000     
    O    8.7642000000        9.4099000000        3.6806000000     
    N   10.7798000000       10.1877000000        3.0422000000     
    H   11.3955000000       10.4252000000        2.2776000000     
    C   11.2665000000       10.3754000000        4.3940000000     
    H   10.4944000000       10.0775000000        5.1034000000     
    H   12.1562000000        9.7650000000        4.5485000000     
    H   11.5155000000       11.4253000000        4.5485000000     

15 17 19 25 F
17 19 25 27 F
