--Link1--
%nproc=8
%mem=4096MB
%chk=IPolQout.vacu.chk
#MP2/cc-pvTZ density=MP2, maxdisk=16GB, pop=(minimal, MK), 5d, punch=mo

Generated by mdgx

0   1
    H    13.6986534   19.4431684   15.7372721
    C    14.4345386   18.7167060   15.3925610
    H    15.1233472   19.1192217   14.6498472
    H    13.7631752   17.9451744   15.0155846
    C    15.3284725   18.1961581   16.4893400
    O    15.2618360   18.7430283   17.5960016
    N    16.0669388   17.1042206   16.2056368
    H    16.1826534   16.7070101   15.2842607
    C    16.7929247   16.3285811   17.2008668
    H    17.2560694   15.5190153   16.6367744
    C    18.0412973   17.1637902   17.7651316
    H    17.8115972   18.0539874   18.3506962
    H    18.6636861   16.5318468   18.3986773
    H    18.5298962   17.6519080   16.9218569
    C    15.8843711   15.7872175   18.3292098
    O    14.6870942   15.7396875   18.1934262
    N    16.4348906   15.2250830   19.3934966
    H    17.4372143   15.1008721   19.3891488
    C    15.6488489   14.8050465   20.5559383
    H    15.1199376   13.8705652   20.3685952
    H    16.3705335   14.6049477   21.3479179
    H    14.9731726   15.6129573   20.8367256



