%chk=structure_345.chk
%NProcShared=8
# b3lyp/6-31G* Opt=(ModRedundant, maxcycles=1000, calcfc) geom=nocrowd

Phi Psi fixed scan

0   1
    H    0.5059000000        4.0098000000       -1.3919000000     
    C    1.2470000000        3.6069000000       -0.7015000000     
    H    1.4338000000        2.5596000000       -0.9387000000     
    H    0.8743000000        3.6867000000        0.3197000000     
    C    2.5671000000        4.3738000000       -0.8014000000     
    O    2.6862000000        5.3108000000       -1.5877000000     
    N    3.5554000000        3.9697000000       -0.0000000000     
    H    3.4094000000        3.1938000000        0.6300000000     
    C    4.8533000000        4.6139000000       -0.0000000000     
    H    5.4076000000        4.3155000000        0.8898000000     
    C    5.6613000000        4.2208000000       -1.2322000000     
    H    5.1233000000        4.5214000000       -2.1312000000     
    H    6.6305000000        4.7189000000       -1.2058000000     
    H    5.8085000000        3.1409000000       -1.2414000000     
    C    4.7127000000        6.1294000000        0.0000000000     
    O    5.6735000000        6.8450000000        0.2741000000     
    N    3.5094000000        6.6181000000       -0.3089000000     
    H    2.7497000000        5.9893000000       -0.5272000000     
    C    3.2474000000        8.0428000000       -0.3436000000     
    H    4.1568000000        8.5863000000       -0.0875000000     
    H    2.9233000000        8.3290000000       -1.3442000000     
    H    2.4646000000        8.2864000000        0.3748000000     

5 7 9 15 F
7 9 15 17 F
