%chk=structure_165.chk
%NProcShared=8
# b3lyp/6-31G* Opt=(ModRedundant, maxcycles=1000, calcfc) geom=nocrowd

Phi Psi fixed scan

0   1
    H    0.5059000000        4.0098000000       -1.3919000000     
    C    1.2470000000        3.6069000000       -0.7015000000     
    H    1.4338000000        2.5596000000       -0.9387000000     
    H    0.8743000000        3.6867000000        0.3197000000     
    C    2.5671000000        4.3738000000       -0.8014000000     
    O    2.6862000000        5.3108000000       -1.5877000000     
    N    3.5554000000        3.9697000000       -0.0000000000     
    H    3.4094000000        3.1938000000        0.6300000000     
    C    4.8533000000        4.6139000000       -0.0000000000     
    H    5.4076000000        4.3155000000        0.8898000000     
    C    5.6613000000        4.2208000000       -1.2322000000     
    H    5.1233000000        4.5214000000       -2.1312000000     
    H    6.6305000000        4.7189000000       -1.2058000000     
    H    5.8085000000        3.1409000000       -1.2414000000     
    C    4.7127000000        6.1294000000        0.0000000000     
    O    3.6366000000        6.6560000000       -0.2741000000     
    N    5.8056000000        6.8311000000        0.3090000000     
    H    6.6679000000        6.3528000000        0.5272000000     
    C    5.8010000000        8.2797000000        0.3436000000     
    H    4.8071000000        8.6467000000        0.0875000000     
    H    6.0669000000        8.6206000000        1.3442000000     
    H    6.5256000000        8.6631000000       -0.3748000000     

5 7 9 15 F
7 9 15 17 F
