%chk=structure_240.chk
%NProcShared=8
#SP MP2/aug-cc-pVDZ

Single Point calculation at MP2

0   1
    H   -4.0481000000       -0.9767000000        0.5275000000     
    C   -3.0391000000       -0.9036000000        0.9371000000     
    H   -2.6457000000       -1.9192000000        1.0657000000     
    H   -3.0760000000       -0.4224000000        1.9206000000     
    C   -2.1582000000       -0.1546000000       -0.0496000000     
    O   -2.3928000000       -0.1155000000       -1.2461000000     
    N   -1.0859000000        0.5095000000        0.5238000000     
    H   -0.8787000000        0.2653000000        1.4854000000     
    C    0.0643000000        0.8898000000       -0.2918000000     
    H   -0.3202000000        0.9159000000       -1.3161000000     
    C    0.5732000000        2.2818000000        0.0962000000     
    H    0.9168000000        2.3213000000        1.1382000000     
    H    1.3949000000        2.6034000000       -0.5548000000     
    H   -0.2385000000        3.0069000000       -0.0084000000     
    C    1.0941000000       -0.2690000000       -0.2706000000     
    O    0.7652000000       -1.3945000000       -0.6217000000     
    N    2.3350000000        0.0212000000        0.2256000000     
    H    2.5641000000        0.9800000000        0.4386000000     
    C    3.4010000000       -0.9655000000        0.2713000000     
    H    2.9554000000       -1.9368000000        0.0535000000     
    H    4.1787000000       -0.7562000000       -0.4739000000     
    H    3.8620000000       -0.9904000000        1.2650000000     

