%chk=structure_60.chk
%NProcShared=8
#SP MP2/aug-cc-pVDZ

Single Point calculation at MP2

0   1
    H    3.2602000000       -1.5817000000       -1.0281000000     
    C    3.1795000000       -0.5441000000       -0.6916000000     
    H    3.2697000000        0.1217000000       -1.5553000000     
    H    4.0170000000       -0.3558000000       -0.0119000000     
    C    1.8816000000       -0.3758000000        0.0786000000     
    O    1.5903000000       -1.1122000000        1.0244000000     
    N    1.0580000000        0.6228000000       -0.3381000000     
    H    1.3238000000        1.1813000000       -1.1375000000     
    C   -0.1333000000        1.0424000000        0.4103000000     
    H    0.0688000000        0.7910000000        1.4579000000     
    C   -0.3553000000        2.5433000000        0.2575000000     
    H   -0.5531000000        2.8061000000       -0.7870000000     
    H   -1.2310000000        2.8518000000        0.8329000000     
    H    0.5190000000        3.0980000000        0.6136000000     
    C   -1.3876000000        0.2424000000       -0.0313000000     
    O   -2.3752000000        0.7923000000       -0.5074000000     
    N   -1.2646000000       -1.0980000000        0.1585000000     
    H   -0.4087000000       -1.4326000000        0.5952000000     
    C   -2.3132000000       -2.0376000000       -0.1909000000     
    H   -3.1343000000       -1.4710000000       -0.6327000000     
    H   -1.9552000000       -2.7776000000       -0.9170000000     
    H   -2.6815000000       -2.5686000000        0.6953000000     

