%chk=structure_180.chk
%NProcShared=8
#SP MP2/aug-cc-pVDZ

Single Point calculation at MP2

0   1
    H    4.0633000000       -1.0796000000        0.1077000000     
    C    3.1980000000       -0.8855000000       -0.5280000000     
    H    2.8067000000       -1.8452000000       -0.8873000000     
    H    3.5031000000       -0.2953000000       -1.3986000000     
    C    2.1264000000       -0.1875000000        0.2920000000     
    O    2.0848000000       -0.2453000000        1.5126000000     
    N    1.2146000000        0.5412000000       -0.4524000000     
    H    1.1435000000        0.2554000000       -1.4231000000     
    C   -0.0631000000        0.8916000000        0.1435000000     
    H    0.1116000000        0.9236000000        1.2240000000     
    C   -0.5330000000        2.2683000000       -0.3546000000     
    H   -0.7084000000        2.2557000000       -1.4367000000     
    H   -1.4640000000        2.5835000000        0.1281000000     
    H    0.2347000000        3.0173000000       -0.1405000000     
    C   -1.0903000000       -0.2286000000       -0.1559000000     
    O   -0.8010000000       -1.1945000000       -0.8533000000     
    N   -2.3403000000       -0.0222000000        0.3513000000     
    H   -2.4689000000        0.7314000000        1.0119000000     
    C   -3.4043000000       -1.0049000000        0.2222000000     
    H   -3.1293000000       -1.6824000000       -0.5868000000     
    H   -3.5345000000       -1.5898000000        1.1417000000     
    H   -4.3506000000       -0.5109000000       -0.0215000000     

