%chk=structure_135.chk
%NProcShared=8
#SP MP2/aug-cc-pVDZ

Single Point calculation at MP2

0   1
    H    3.9410000000       -1.2279000000       -0.1502000000     
    C    2.9952000000       -1.3219000000        0.3860000000     
    H    3.1858000000       -1.3296000000        1.4650000000     
    H    2.5369000000       -2.2797000000        0.1111000000     
    C    2.0731000000       -0.1870000000       -0.0453000000     
    O    2.2095000000        0.3857000000       -1.1129000000     
    N    1.1157000000        0.1423000000        0.9012000000     
    H    1.0404000000       -0.5248000000        1.6595000000     
    C   -0.1420000000        0.8314000000        0.6157000000     
    H   -0.5434000000        1.1175000000        1.5977000000     
    C    0.0241000000        2.1133000000       -0.2147000000     
    H    0.3681000000        1.8803000000       -1.2210000000     
    H   -0.9365000000        2.6393000000       -0.2654000000     
    H    0.7577000000        2.7724000000        0.2593000000     
    C   -1.1477000000       -0.1312000000       -0.0610000000     
    O   -0.8183000000       -0.9074000000       -0.9459000000     
    N   -2.4180000000       -0.0658000000        0.4466000000     
    H   -2.6270000000        0.6450000000        1.1333000000     
    C   -3.5254000000       -0.8090000000       -0.1307000000     
    H   -3.0995000000       -1.5578000000       -0.7999000000     
    H   -4.1038000000       -1.3094000000        0.6534000000     
    H   -4.1965000000       -0.1596000000       -0.7071000000     

