--Link1--
%nproc=8
%mem=4096MB
%chk=IPolQout.vacu.chk
#MP2/cc-pvTZ density=MP2, maxdisk=16GB, pop=(minimal, MK), 5d, punch=mo

Generated by mdgx

0   1
    H    16.4034814   17.3292140   12.5302573
    C    16.9178290   16.5616634   13.1085419
    H    17.9906004   16.4751464   12.9359838
    H    16.4380646   15.6026614   12.9129884
    C    16.6967199   16.8505524   14.5263462
    O    16.4147417   17.9717111   14.8460290
    N    16.9378774   15.8539610   15.3744959
    H    17.1601713   14.9653771   14.9489326
    C    16.9449076   15.9322756   16.8687852
    H    16.8665946   14.9426319   17.3188655
    C    18.3055725   16.5912478   17.3205149
    H    19.1520833   16.1031423   16.8375320
    H    18.3805926   17.6264369   16.9875652
    H    18.3612548   16.5820864   18.4090533
    C    15.6835353   16.6735887   17.4526827
    O    14.5546581   16.4654333   16.9634735
    N    15.9635970   17.4794867   18.4659061
    H    16.9306559   17.5707547   18.7426142
    C    14.9312574   18.1819511   19.2654074
    H    15.1018663   17.9038603   20.3054353
    H    15.0364614   19.2284068   18.9791163
    H    13.9295866   17.8448983   18.9986645



