%chk=structure_225.chk
%NProcShared=8
#SP MP2/aug-cc-pVDZ

Single Point calculation at MP2

0   1
    H    3.6465000000       -1.1208000000       -0.9931000000     
    C    3.0597000000       -1.0713000000       -0.0735000000     
    H    3.6699000000       -0.6419000000        0.7275000000     
    H    2.7873000000       -2.0954000000        0.2083000000     
    C    1.7904000000       -0.2789000000       -0.3420000000     
    O    1.2162000000       -0.3051000000       -1.4246000000     
    N    1.3317000000        0.4699000000        0.7149000000     
    H    1.6771000000        0.2121000000        1.6294000000     
    C   -0.0161000000        1.0461000000        0.6854000000     
    H   -0.1832000000        1.4442000000        1.6932000000     
    C   -0.1209000000        2.2103000000       -0.3061000000     
    H    0.0507000000        1.8719000000       -1.3304000000     
    H   -1.1023000000        2.6923000000       -0.2329000000     
    H    0.6387000000        2.9610000000       -0.0673000000     
    C   -1.0527000000       -0.1003000000        0.5571000000     
    O   -0.9759000000       -1.0658000000        1.3083000000     
    N   -2.0618000000        0.0697000000       -0.3417000000     
    H   -1.9211000000        0.7437000000       -1.0804000000     
    C   -3.0315000000       -0.9888000000       -0.5789000000     
    H   -3.2394000000       -1.4829000000        0.3712000000     
    H   -3.9542000000       -0.5562000000       -0.9761000000     
    H   -2.6540000000       -1.7415000000       -1.2832000000     

