%chk=structure_75.chk
%NProcShared=8
#SP MP2/aug-cc-pVDZ

Single Point calculation at MP2

0   1
    H   -3.2158000000       -2.0727000000        0.4788000000     
    C   -3.0937000000       -1.1903000000       -0.1531000000     
    H   -3.9226000000       -0.5072000000        0.0665000000     
    H   -3.1581000000       -1.4863000000       -1.2055000000     
    C   -1.7769000000       -0.5128000000        0.2094000000     
    O   -1.3607000000       -0.4663000000        1.3557000000     
    N   -1.0949000000        0.0305000000       -0.8566000000     
    H   -1.5961000000        0.0805000000       -1.7336000000     
    C    0.0410000000        0.9588000000       -0.7188000000     
    H    0.3970000000        1.1303000000       -1.7413000000     
    C   -0.3591000000        2.2906000000       -0.0801000000     
    H   -0.6813000000        2.1248000000        0.9493000000     
    H    0.4931000000        2.9765000000       -0.0623000000     
    H   -1.1720000000        2.7538000000       -0.6503000000     
    C    1.2167000000        0.3153000000        0.0648000000     
    O    1.5728000000        0.7058000000        1.1631000000     
    N    1.9259000000       -0.6033000000       -0.6700000000     
    H    1.4482000000       -1.0152000000       -1.4616000000     
    C    2.9876000000       -1.3879000000       -0.0579000000     
    H    3.4909000000       -0.7564000000        0.6754000000     
    H    2.6065000000       -2.2790000000        0.4590000000     
    H    3.7038000000       -1.6976000000       -0.8247000000     

