%chk=structure_135.chk
%NProcShared=8
#SP MP2/aug-cc-pVDZ

Single Point calculation at MP2

0   1
    H   -3.7711000000       -1.4305000000        0.1749000000     
    C   -2.8957000000       -1.3385000000       -0.4698000000     
    H   -3.2184000000       -1.1722000000       -1.5040000000     
    H   -2.3365000000       -2.2816000000       -0.4329000000     
    C   -2.0130000000       -0.2141000000        0.0567000000     
    O   -2.0943000000        0.1950000000        1.2005000000     
    N   -1.1684000000        0.3375000000       -0.9064000000     
    H   -1.1438000000       -0.2099000000       -1.7597000000     
    C    0.1402000000        0.9212000000       -0.5949000000     
    H    0.5581000000        1.2249000000       -1.5631000000     
    C    0.0268000000        2.1701000000        0.2951000000     
    H   -0.3831000000        1.9001000000        1.2684000000     
    H    1.0138000000        2.6285000000        0.4279000000     
    H   -0.6386000000        2.9003000000       -0.1758000000     
    C    1.0930000000       -0.1113000000        0.0562000000     
    O    0.7352000000       -0.9004000000        0.9173000000     
    N    2.3627000000       -0.0956000000       -0.4611000000     
    H    2.6058000000        0.6286000000       -1.1223000000     
    C    3.4358000000       -0.9056000000        0.0908000000     
    H    2.9763000000       -1.6607000000        0.7301000000     
    H    3.9952000000       -1.3996000000       -0.7109000000     
    H    4.1319000000       -0.3081000000        0.6932000000     

