%chk=structure_165.chk
%NProcShared=8
#SP MP2/aug-cc-pVDZ

Single Point calculation at MP2

0   1
    H   -3.8179000000       -1.2024000000        0.4491000000     
    C   -3.0319000000       -1.1326000000       -0.3045000000     
    H   -3.4709000000       -0.8542000000       -1.2691000000     
    H   -2.5619000000       -2.1177000000       -0.4105000000     
    C   -1.9798000000       -0.1410000000        0.1678000000     
    O   -1.8373000000        0.1527000000        1.3429000000     
    N   -1.2361000000        0.4342000000       -0.8576000000     
    H   -1.3281000000       -0.0608000000       -1.7372000000     
    C    0.1211000000        0.9194000000       -0.6274000000     
    H    0.4930000000        1.2384000000       -1.6099000000     
    C    0.1613000000        2.1390000000        0.3113000000     
    H   -0.1562000000        1.8579000000        1.3153000000     
    H    1.1697000000        2.5669000000        0.3549000000     
    H   -0.5179000000        2.9097000000       -0.0657000000     
    C    1.0453000000       -0.2348000000       -0.1491000000     
    O    0.6168000000       -1.3351000000        0.1684000000     
    N    2.3806000000        0.0535000000       -0.2220000000     
    H    2.6561000000        1.0062000000       -0.4144000000     
    C    3.4033000000       -0.8726000000        0.2357000000     
    H    2.9363000000       -1.8536000000        0.3314000000     
    H    4.2210000000       -0.9288000000       -0.4908000000     
    H    3.8138000000       -0.5805000000        1.2107000000     

