%chk=structure_300.chk
%NProcShared=8
#SP MP2/aug-cc-pVDZ

Single Point calculation at MP2

0   1
    H   -3.8863000000       -0.8565000000        0.1591000000     
    C   -3.1342000000       -0.7606000000       -0.6290000000     
    H   -3.4926000000       -0.0509000000       -1.3807000000     
    H   -3.0233000000       -1.7452000000       -1.0952000000     
    C   -1.8108000000       -0.3707000000        0.0114000000     
    O   -1.3591000000       -1.0162000000        0.9609000000     
    N   -1.2055000000        0.7286000000       -0.5151000000     
    H   -1.6237000000        1.1084000000       -1.3524000000     
    C    0.1220000000        1.2808000000       -0.1721000000     
    H    0.2896000000        2.0867000000       -0.8883000000     
    C    0.1303000000        1.8647000000        1.2508000000     
    H   -0.0830000000        1.0913000000        1.9922000000     
    H    1.1115000000        2.2996000000        1.4673000000     
    H   -0.6267000000        2.6510000000        1.3407000000     
    C    1.3397000000        0.3442000000       -0.3983000000     
    O    2.2556000000        0.7308000000       -1.1209000000     
    N    1.3475000000       -0.8237000000        0.2888000000     
    H    0.4961000000       -1.0824000000        0.7852000000     
    C    2.4369000000       -1.7761000000        0.1728000000     
    H    3.2672000000       -1.2809000000       -0.3323000000     
    H    2.7601000000       -2.1086000000        1.1655000000     
    H    2.1421000000       -2.6580000000       -0.4109000000     

