%chk=structure_315.chk
%NProcShared=8
#SP MP2/aug-cc-pVDZ

Single Point calculation at MP2

0   1
    H   -3.5503000000       -1.8019000000        0.3202000000     
    C   -3.0395000000       -1.3134000000       -0.5127000000     
    H   -3.8056000000       -0.8451000000       -1.1414000000     
    H   -2.5166000000       -2.0681000000       -1.1094000000     
    C   -2.1279000000       -0.2252000000        0.0502000000     
    O   -2.4747000000        0.4650000000        0.9968000000     
    N   -0.9214000000       -0.1140000000       -0.6050000000     
    H   -0.8101000000       -0.7129000000       -1.4127000000     
    C    0.1216000000        0.9167000000       -0.4895000000     
    H    0.1437000000        1.4885000000       -1.4252000000     
    C   -0.0480000000        1.9078000000        0.6705000000     
    H   -0.0549000000        1.4058000000        1.6401000000     
    H    0.7996000000        2.6002000000        0.6338000000     
    H   -0.9767000000        2.4714000000        0.5791000000     
    C    1.5202000000        0.2656000000       -0.4065000000     
    O    2.4707000000        0.7401000000       -1.0168000000     
    N    1.6091000000       -0.7988000000        0.4393000000     
    H    0.7543000000       -1.1328000000        0.8626000000     
    C    2.8548000000       -1.4950000000        0.7022000000     
    H    3.6369000000       -0.9872000000        0.1358000000     
    H    3.1061000000       -1.4644000000        1.7689000000     
    H    2.8031000000       -2.5430000000        0.3827000000     

