%chk=structure_150.chk
%NProcShared=8
#SP MP2/aug-cc-pVDZ

Single Point calculation at MP2

0   1
    H   -4.1671000000       -1.1144000000        0.0756000000     
    C   -3.1035000000       -1.3569000000        0.0822000000     
    H   -2.8943000000       -2.1122000000       -0.6831000000     
    H   -2.8484000000       -1.7873000000        1.0585000000     
    C   -2.3074000000       -0.0751000000       -0.1385000000     
    O   -2.7987000000        1.0307000000        0.0388000000     
    N   -1.0221000000       -0.2944000000       -0.5924000000     
    H   -0.7187000000       -1.2559000000       -0.4689000000     
    C    0.1116000000        0.6210000000       -0.4416000000     
    H    0.3411000000        1.0747000000       -1.4169000000     
    C   -0.0801000000        1.7520000000        0.5892000000     
    H   -0.2601000000        1.3333000000        1.5842000000     
    H    0.8308000000        2.3601000000        0.6305000000     
    H   -0.9289000000        2.3798000000        0.3239000000     
    C    1.3148000000       -0.2340000000        0.0115000000     
    O    1.1661000000       -1.2637000000        0.6627000000     
    N    2.5284000000        0.2318000000       -0.3912000000     
    H    2.5606000000        1.0921000000       -0.9200000000     
    C    3.7829000000       -0.3786000000        0.0166000000     
    H    3.5420000000       -1.3180000000        0.5155000000     
    H    4.4131000000       -0.5836000000       -0.8554000000     
    H    4.3367000000        0.2636000000        0.7122000000     

