%chk=structure_165.chk
%NProcShared=8
#SP MP2/aug-cc-pVDZ

Single Point calculation at MP2

0   1
    H   -3.7172000000       -1.4563000000        0.0244000000     
    C   -3.1131000000       -0.7067000000        0.5385000000     
    H   -2.7842000000       -1.1248000000        1.4975000000     
    H   -3.7211000000        0.1821000000        0.7393000000     
    C   -1.8871000000       -0.3963000000       -0.3007000000     
    O   -1.4257000000       -1.1722000000       -1.1225000000     
    N   -1.3408000000        0.8655000000       -0.1065000000     
    H   -1.6326000000        1.3087000000        0.7584000000     
    C    0.0730000000        1.0585000000       -0.4022000000     
    H    0.1899000000        1.0652000000       -1.4934000000     
    C    0.5352000000        2.4071000000        0.1646000000     
    H    0.4728000000        2.4056000000        1.2596000000     
    H    1.5741000000        2.6102000000       -0.1087000000     
    H   -0.0919000000        3.2173000000       -0.2218000000     
    C    0.9347000000       -0.0965000000        0.1707000000     
    O    0.5594000000       -0.7821000000        1.1112000000     
    N    2.2033000000       -0.1508000000       -0.3380000000     
    H    2.3710000000        0.3068000000       -1.2242000000     
    C    3.1407000000       -1.1876000000        0.0662000000     
    H    2.8862000000       -1.4883000000        1.0832000000     
    H    3.0844000000       -2.0718000000       -0.5818000000     
    H    4.1617000000       -0.7941000000        0.0463000000     

