%chk=structure_210.chk
%NProcShared=8
#SP MP2/aug-cc-pVDZ

Single Point calculation at MP2

0   1
    H    3.6800000000       -1.3225000000       -0.6249000000     
    C    2.8784000000       -0.6844000000       -0.9999000000     
    H    2.2547000000       -1.2688000000       -1.6870000000     
    H    3.3090000000        0.1557000000       -1.5577000000     
    C    2.0223000000       -0.2251000000        0.1686000000     
    O    2.0581000000       -0.7484000000        1.2645000000     
    N    1.2608000000        0.9318000000       -0.0828000000     
    H    1.3036000000        1.1838000000       -1.0681000000     
    C   -0.1223000000        1.0413000000        0.3930000000     
    H   -0.0661000000        1.1167000000        1.4882000000     
    C   -0.7217000000        2.3446000000       -0.1478000000     
    H   -0.9152000000        2.2854000000       -1.2256000000     
    H   -1.6597000000        2.6078000000        0.3527000000     
    H   -0.0206000000        3.1643000000        0.0342000000     
    C   -0.9523000000       -0.2505000000        0.1258000000     
    O   -0.4350000000       -1.3506000000        0.0030000000     
    N   -2.2943000000       -0.0555000000       -0.0723000000     
    H   -2.6929000000        0.8459000000        0.1427000000     
    C   -3.2097000000       -1.1766000000       -0.2229000000     
    H   -2.6545000000       -2.0066000000       -0.6609000000     
    H   -3.6252000000       -1.5060000000        0.7386000000     
    H   -4.0318000000       -0.8941000000       -0.8873000000     

