%chk=structure_150.chk
%NProcShared=8
#SP MP2/aug-cc-pVDZ

Single Point calculation at MP2

0   1
    H   -3.6517000000       -1.5812000000       -0.0608000000     
    C   -3.1154000000       -0.7872000000        0.4622000000     
    H   -2.8664000000       -1.1469000000        1.4679000000     
    H   -3.7620000000        0.0913000000        0.5597000000     
    C   -1.8264000000       -0.4870000000       -0.2813000000     
    O   -1.2399000000       -1.3174000000       -0.9610000000     
    N   -1.3613000000        0.8087000000       -0.1660000000     
    H   -1.7406000000        1.3346000000        0.6130000000     
    C    0.0458000000        1.0709000000       -0.4452000000     
    H    0.1875000000        1.0260000000       -1.5324000000     
    C    0.4205000000        2.4686000000        0.0597000000     
    H    0.3295000000        2.5144000000        1.1511000000     
    H    1.4559000000        2.7054000000       -0.2017000000     
    H   -0.2328000000        3.2273000000       -0.3844000000     
    C    0.9524000000        0.0122000000        0.2265000000     
    O    0.6980000000       -0.4297000000        1.3389000000     
    N    2.1195000000       -0.2387000000       -0.4378000000     
    H    2.1414000000       -0.0291000000       -1.4268000000     
    C    3.0645000000       -1.2304000000        0.0529000000     
    H    3.0177000000       -1.2300000000        1.1426000000     
    H    2.8239000000       -2.2405000000       -0.3032000000     
    H    4.0763000000       -0.9673000000       -0.2697000000     

