%chk=structure.chk
NProcShared=8
#P b3lyp/6-31G* Opt=(AddRedundant, Tight) Freq SCF(Conver=6)  geom=nocrowd

Phi Psi scan

0   1
    H    7.7691000000        1.0000000000       -3.3308000000     
    C    7.7691000000        2.0900000000       -3.3308000000     
    H    7.2553000000        2.4539000000       -4.2206000000     
    H    8.7965000000        2.4539000000       -3.3308000000     
    C    7.0554000000        2.6408000000       -2.0946000000     
    O    6.5738000000        1.8774000000       -1.2605000000     
    N    6.9914000000        3.9697000000       -1.9838000000     
    H    7.4025000000        4.5562000000       -2.6959000000     
    C    6.3425000000        4.6139000000       -0.8598000000     
    H    5.2947000000        4.3155000000       -0.8246000000     
    C    7.0055000000        4.2208000000        0.4561000000     
    H    8.0531000000        4.5213000000        0.4396000000     
    H    6.4981000000        4.7189000000        1.2822000000     
    H    6.9399000000        3.1409000000        0.5882000000     
    C    6.4127000000        6.1294000000       -0.9815000000     
    O    6.9688000000        6.6527000000       -1.9446000000     
    N    5.8460000000        6.8349000000        0.0000000000     
    H    5.4006000000        6.3592000000        0.7716000000     
    C    5.8461000000        8.2839000000        0.0000000000     
    H    5.3323000000        8.6477000000       -0.8898000000     
    C    5.1347000000        8.8329000000        1.2322000000     
    H    5.6431000000        8.4846000000        2.1312000000     
    H    5.1499000000        9.9224000000        1.2058000000     
    H    4.1019000000        8.4846000000        1.2414000000     
    C    7.2660000000        8.8318000000        0.0000000000     
    O    7.4667000000       10.0443000000        0.0000000000     
    N    8.2534000000        7.9333000000       -0.0000000000     
    H    8.0383000000        6.9465000000       -0.0000000000     
    C    9.6477000000        8.3279000000       -0.0000000000     
    H    9.8579000000        8.9213000000       -0.8898000000     
    C    9.9822000000        9.1618000000        1.2321000000     
    H    9.7855000000        8.5778000000        2.1312000000     
    H   11.0348000000        9.4439000000        1.2058000000     
    H    9.3659000000       10.0608000000        1.2414000000     
    C   10.5615000000        7.1107000000       -0.0000000000     
    O   10.0892000000        5.9761000000       -0.0000000000     
    N   11.8750000000        7.3494000000       -0.0000000000     
    H   12.2155000000        8.3003000000       -0.0000000000     
    C   12.8483000000        6.2760000000       -0.0000000000     
    H   12.3316000000        5.3163000000       -0.0000000000     
    H   13.4733000000        6.3516000000       -0.8899000000     
    H   13.4733000000        6.3516000000        0.8898000000     

15 17 19 25 F
17 19 25 27 0.0 S 6 60.0
