%chk=structure_15.chk
%NProcShared=8
# b3lyp/6-31G* Opt=(ModRedundant, maxcycles=1000, calcfc) geom=nocrowd

Phi Psi fixed scan

0   1
    H    1.1248000000        2.7631000000       -1.9684000000     
    C    1.5589000000        2.9786000000       -0.9921000000     
    H    1.6873000000        2.0489000000       -0.4377000000     
    H    0.8960000000        3.6429000000       -0.4377000000     
    C    2.9235000000        3.6560000000       -1.1334000000     
    O    3.3922000000        3.8887000000       -2.2454000000     
    N    3.5554000000        3.9697000000       -0.0000000000     
    H    3.1293000000        3.7581000000        0.8909000000     
    C    4.8533000000        4.6139000000       -0.0000000000     
    H    5.4076000000        4.3155000000        0.8898000000     
    C    5.6613000000        4.2208000000       -1.2322000000     
    H    5.1233000000        4.5214000000       -2.1312000000     
    H    6.6305000000        4.7189000000       -1.2058000000     
    H    5.8085000000        3.1409000000       -1.2414000000     
    C    4.7127000000        6.1294000000        0.0000000000     
    O    5.6735000000        6.8450000000       -0.2741000000     
    N    3.5094000000        6.6181000000        0.3090000000     
    H    2.7497000000        5.9893000000        0.5272000000     
    C    3.2474000000        8.0428000000        0.3436000000     
    H    4.1568000000        8.5863000000        0.0875000000     
    H    2.4646000000        8.2864000000       -0.3748000000     
    H    2.9233000000        8.3289000000        1.3442000000     

5 7 9 15 F
7 9 15 17 F
