%chk=structure_330.chk
NProcShared=8
# b3lyp/6-31G* Opt=(ModRedundant, maxcycles=1000, calcfc) geom=nocrowd

Phi Psi fixed scan

0   1
    H    9.1768000000        1.0000000000       -1.9230000000     
    C    9.1768000000        2.0900000000       -1.9230000000     
    H    9.1768000000        2.4539000000       -2.9505000000     
    H   10.0666000000        2.4538000000       -1.4093000000     
    C    7.9406000000        2.6408000000       -1.2093000000     
    O    7.1065000000        1.8774000000       -0.7277000000     
    N    7.8298000000        3.9697000000       -1.1453000000     
    H    8.5419000000        4.5562000000       -1.5565000000     
    C    6.7058000000        4.6139000000       -0.4964000000     
    H    5.7809000000        4.3155000000       -0.9898000000     
    C    6.6221000000        4.2208000000        0.9747000000     
    H    7.5376000000        4.5213000000        1.4843000000     
    H    5.7696000000        4.7189000000        1.4365000000     
    H    6.4992000000        3.1409000000        1.0563000000     
    C    6.8276000000        6.1294000000       -0.5667000000     
    O    7.7906000000        6.6527000000       -1.1227000000     
    N    5.8460000000        6.8349000000        0.0000000000     
    H    5.0745000000        6.3592000000        0.4455000000     
    C    5.8461000000        8.2839000000        0.0000000000     
    H    5.3323000000        8.6477000000       -0.8898000000     
    C    5.1347000000        8.8329000000        1.2322000000     
    H    5.6431000000        8.4846000000        2.1312000000     
    H    5.1499000000        9.9224000000        1.2058000000     
    H    4.1019000000        8.4846000000        1.2414000000     
    C    7.2660000000        8.8318000000        0.0000000000     
    O    7.5178000000        9.9119000000       -0.5295000000     
    N    8.1959000000        8.0825000000        0.5968000000     
    H    7.9400000000        7.2011000000        1.0184000000     
    C    9.5837000000        8.4938000000        0.6638000000     
    H    9.9771000000        8.6124000000       -0.3458000000     
    C    9.7281000000        9.8203000000        1.4020000000     
    H    9.3467000000        9.7149000000        2.4177000000     
    H   10.7799000000       10.1045000000        1.4371000000     
    H    9.1613000000       10.5910000000        0.8797000000     
    C   10.4269000000        7.4597000000        1.3960000000     
    O    9.9117000000        6.4361000000        1.8403000000     
    N   11.7283000000        7.7297000000        1.5211000000     
    H   12.1056000000        8.5850000000        1.1388000000     
    C   12.6364000000        6.8252000000        2.1970000000     
    H   12.0854000000        5.9542000000        2.5517000000     
    H   13.4141000000        6.5050000000        1.5036000000     
    H   13.0938000000        7.3352000000        3.0448000000     

15 17 19 25 F
17 19 25 27 F
