%chk=structure_150.chk
%NProcShared=8
#SP MP2/aug-cc-pVDZ

Single Point calculation at MP2

0   1
    H   -3.6203000000       -1.6118000000        0.0534000000     
    C   -3.1286000000       -0.7233000000        0.4534000000     
    H   -2.9187000000       -0.8946000000        1.5162000000     
    H   -3.8010000000        0.1375000000        0.3692000000     
    C   -1.8135000000       -0.5146000000       -0.2769000000     
    O   -1.2023000000       -1.4225000000       -0.8186000000     
    N   -1.3696000000        0.7961000000       -0.3309000000     
    H   -1.8499000000        1.4235000000        0.3042000000     
    C    0.0566000000        1.0865000000       -0.4696000000     
    H    0.2979000000        1.1499000000       -1.5401000000     
    C    0.3697000000        2.4348000000        0.1902000000     
    H    0.1948000000        2.3732000000        1.2701000000     
    H    1.4169000000        2.7056000000        0.0291000000     
    H   -0.2598000000        3.2270000000       -0.2309000000     
    C    0.9393000000       -0.0078000000        0.1759000000     
    O    0.6513000000       -0.5103000000        1.2528000000     
    N    2.1567000000       -0.1708000000       -0.4268000000     
    H    2.2277000000        0.0866000000       -1.4024000000     
    C    3.1048000000       -1.1581000000        0.0678000000     
    H    3.0234000000       -1.1904000000        1.1550000000     
    H    2.8983000000       -2.1628000000       -0.3233000000     
    H    4.1199000000       -0.8637000000       -0.2143000000     

