%chk=structure_45.chk
%NProcShared=8
#SP MP2/aug-cc-pVDZ

Single Point calculation at MP2

0   1
    H   -3.9142000000       -1.0648000000       -0.1411000000     
    C   -3.2694000000       -0.4533000000        0.4954000000     
    H   -3.2704000000       -0.9056000000        1.4930000000     
    H   -3.6877000000        0.5553000000        0.5670000000     
    C   -1.8518000000       -0.5071000000       -0.0603000000     
    O   -1.3616000000       -1.5944000000       -0.3712000000     
    N   -1.2507000000        0.7068000000       -0.2067000000     
    H   -1.8069000000        1.4755000000        0.1421000000     
    C    0.1473000000        1.1334000000       -0.4837000000     
    H    0.2577000000        1.1634000000       -1.5791000000     
    C    0.2979000000        2.5605000000        0.0459000000     
    H    0.1942000000        2.5841000000        1.1360000000     
    H    1.2890000000        2.9408000000       -0.1989000000     
    H   -0.4575000000        3.2168000000       -0.4028000000     
    C    1.3522000000        0.2621000000       -0.0044000000     
    O    2.3524000000        0.8343000000        0.4272000000     
    N    1.2972000000       -1.0694000000       -0.2002000000     
    H    0.3950000000       -1.4906000000       -0.4294000000     
    C    2.4236000000       -1.9074000000        0.1751000000     
    H    3.3362000000       -1.5673000000       -0.3238000000     
    H    2.6059000000       -1.8822000000        1.2566000000     
    H    2.2079000000       -2.9347000000       -0.1275000000     

