%chk=structure_300.chk
%NProcShared=8
#SP MP2/aug-cc-pVDZ 

Phi Psi fixed scan

0   1
    H    5.7797000000        1.0203000000       -1.8474000000     
    C    4.9374000000        1.5454000000       -1.3864000000     
    H    4.2146000000        1.8129000000       -2.1633000000     
    H    5.3322000000        2.4619000000       -0.9365000000     
    C    4.3560000000        0.6687000000       -0.2866000000     
    O    5.0357000000        0.2646000000        0.6531000000     
    N    3.0326000000        0.3712000000       -0.4120000000     
    H    2.4936000000        0.6358000000       -1.2282000000     
    C    2.3527000000       -0.5103000000        0.5158000000     
    H    3.0381000000       -1.3275000000        0.7747000000     
    C    1.9402000000        0.2159000000        1.8130000000     
    H    1.1990000000        0.9941000000        1.6049000000     
    H    1.5087000000       -0.4829000000        2.5395000000     
    H    2.8304000000        0.6660000000        2.2591000000     
    C    1.1212000000       -1.0647000000       -0.2182000000     
    O    0.6907000000       -0.5395000000       -1.2415000000     
    N    0.5373000000       -2.1461000000        0.3686000000     
    H    0.9674000000       -2.5159000000        1.2064000000     
    C   -0.7289000000       -2.7588000000       -0.0532000000     
    H   -0.5326000000       -3.4724000000       -0.8617000000     
    C   -1.3642000000       -3.4973000000        1.1291000000     
    H   -1.6033000000       -2.8118000000        1.9487000000     
    H   -2.2895000000       -3.9840000000        0.8076000000     
    H   -0.6902000000       -4.2754000000        1.5081000000     
    C   -1.7067000000       -1.7438000000       -0.6857000000     
    O   -2.2086000000       -1.9488000000       -1.7813000000     
    N   -2.0758000000       -0.7136000000        0.1321000000     
    H   -1.4842000000       -0.4750000000        0.9240000000     
    C   -2.7688000000        0.4395000000       -0.4166000000     
    H   -2.5237000000        0.5059000000       -1.4845000000     
    C   -4.2952000000        0.3081000000       -0.2685000000     
    H   -4.5764000000        0.2415000000        0.7876000000     
    H   -4.8220000000        1.1593000000       -0.7150000000     
    H   -4.6200000000       -0.6025000000       -0.7788000000     
    C   -2.2159000000        1.6811000000        0.3080000000     
    O   -1.4920000000        1.5791000000        1.2984000000     
    N   -2.6020000000        2.8737000000       -0.2135000000     
    H   -3.1559000000        2.8699000000       -1.0583000000     
    C   -2.1803000000        4.1526000000        0.3338000000     
    H   -1.6252000000        3.9501000000        1.2501000000     
    H   -1.5297000000        4.6892000000       -0.3667000000     
    H   -3.0467000000        4.7814000000        0.5670000000     

15 17 19 25  F
17 19 25 27  F
