%chk=structure_150.chk
%NProcShared=8
#SP MP2/aug-cc-pVDZ 

Phi Psi fixed scan

0   1
    H   -6.4226000000       -2.1418000000       -1.4510000000     
    C   -5.7510000000       -2.2853000000       -0.5988000000     
    H   -4.9596000000       -2.9862000000       -0.8819000000     
    H   -6.3422000000       -2.7240000000        0.2111000000     
    C   -5.2327000000       -0.9269000000       -0.1483000000     
    O   -5.9890000000       -0.0267000000        0.2072000000     
    N   -3.8791000000       -0.7814000000       -0.1636000000     
    H   -3.2605000000       -1.5010000000       -0.5190000000     
    C   -3.2336000000        0.4700000000        0.1799000000     
    H   -3.8324000000        1.2901000000       -0.2366000000     
    C   -3.1207000000        0.6661000000        1.7058000000     
    H   -2.4878000000       -0.1107000000        2.1441000000     
    H   -2.6809000000        1.6392000000        1.9519000000     
    H   -4.1221000000        0.6170000000        2.1406000000     
    C   -1.8430000000        0.4516000000       -0.4653000000     
    O   -1.3255000000       -0.5873000000       -0.8596000000     
    N   -1.2439000000        1.6786000000       -0.6045000000     
    H   -1.7221000000        2.4362000000       -0.1308000000     
    C    0.2119000000        1.8219000000       -0.6420000000     
    H    0.5457000000        1.7424000000       -1.6852000000     
    C    0.6004000000        3.2008000000       -0.0951000000     
    H    0.3309000000        3.2765000000        0.9642000000     
    H    1.6788000000        3.3578000000       -0.1866000000     
    H    0.0914000000        3.9953000000       -0.6524000000     
    C    0.9186000000        0.7235000000        0.1854000000     
    O    0.4673000000        0.3246000000        1.2542000000     
    N    2.1473000000        0.3837000000       -0.2765000000     
    H    2.4853000000        0.6746000000       -1.1875000000     
    C    2.9863000000       -0.5864000000        0.4023000000     
    H    2.9837000000       -0.3468000000        1.4724000000     
    C    2.4743000000       -2.0288000000        0.2131000000     
    H    2.5005000000       -2.3051000000       -0.8459000000     
    H    3.0867000000       -2.7430000000        0.7754000000     
    H    1.4434000000       -2.0902000000        0.5695000000     
    C    4.3993000000       -0.4256000000       -0.1797000000     
    O    4.5777000000        0.0778000000       -1.2867000000     
    N    5.4029000000       -0.9098000000        0.5985000000     
    H    5.1676000000       -1.2867000000        1.5058000000     
    C    6.7961000000       -0.9111000000        0.1836000000     
    H    6.8411000000       -0.4635000000       -0.8097000000     
    H    7.4117000000       -0.3208000000        0.8717000000     
    H    7.1934000000       -1.9316000000        0.1374000000     

15 17 19 25  F
17 19 25 27  F
