%chk=structure_120.chk
%NProcShared=8
#SP MP2/aug-cc-pVDZ 

Phi Psi fixed scan

0   1
    H   -5.7591000000       -3.1957000000        0.3879000000     
    C   -5.0806000000       -2.8612000000       -0.4030000000     
    H   -5.5827000000       -3.0390000000       -1.3591000000     
    H   -4.1651000000       -3.4594000000       -0.3635000000     
    C   -4.8414000000       -1.3665000000       -0.2455000000     
    O   -5.7606000000       -0.5524000000       -0.2717000000     
    N   -3.5426000000       -0.9954000000       -0.0702000000     
    H   -2.7786000000       -1.6599000000       -0.1057000000     
    C   -3.1472000000        0.3946000000        0.0392000000     
    H   -3.7465000000        0.9771000000       -0.6716000000     
    C   -3.3830000000        0.9547000000        1.4567000000     
    H   -2.7802000000        0.4080000000        2.1886000000     
    H   -3.1164000000        2.0159000000        1.5174000000     
    H   -4.4417000000        0.8460000000        1.7047000000     
    C   -1.6602000000        0.4694000000       -0.3355000000     
    O   -0.9395000000       -0.5251000000       -0.3109000000     
    N   -1.2163000000        1.7043000000       -0.7002000000     
    H   -1.8719000000        2.4684000000       -0.5960000000     
    C    0.1986000000        2.0884000000       -0.7550000000     
    H    0.5789000000        1.8688000000       -1.7621000000     
    C    0.3268000000        3.5879000000       -0.4803000000     
    H    0.0331000000        3.7991000000        0.5522000000     
    H    1.3636000000        3.9101000000       -0.6165000000     
    H   -0.2996000000        4.1676000000       -1.1684000000     
    C    1.0375000000        1.3058000000        0.2822000000     
    O    0.8412000000        1.4469000000        1.4858000000     
    N    2.0324000000        0.5481000000       -0.2347000000     
    H    2.0962000000        0.3566000000       -1.2281000000     
    C    2.8805000000       -0.2827000000        0.5995000000     
    H    3.2116000000        0.3226000000        1.4516000000     
    C    2.1379000000       -1.5270000000        1.1279000000     
    H    1.8188000000       -2.1607000000        0.2949000000     
    H    2.7813000000       -2.1149000000        1.7927000000     
    H    1.2530000000       -1.2059000000        1.6807000000     
    C    4.0809000000       -0.6938000000       -0.2663000000     
    O    4.0028000000       -0.7198000000       -1.4922000000     
    N    5.1942000000       -1.0557000000        0.4258000000     
    H    5.1765000000       -0.9862000000        1.4335000000     
    C    6.3994000000       -1.5517000000       -0.2173000000     
    H    6.2194000000       -1.5499000000       -1.2929000000     
    H    7.2577000000       -0.9071000000        0.0041000000     
    H    6.6294000000       -2.5732000000        0.1074000000     

15 17 19 25  F
17 19 25 27  F
