%chk=structure_120.chk
%NProcShared=8
#SP MP2/aug-cc-pVDZ

Single Point calculation at MP2

0   1
    H   -4.0672000000       -1.2496000000       -0.0761000000     
    C   -3.0073000000       -1.5034000000       -0.1371000000     
    H   -2.8192000000       -2.0572000000       -1.0635000000     
    H   -2.7653000000       -2.1568000000        0.7094000000     
    C   -2.1938000000       -0.2170000000       -0.0210000000     
    O   -2.5974000000        0.7373000000        0.6248000000     
    N   -1.0014000000       -0.2562000000       -0.7092000000     
    H   -0.7752000000       -1.1499000000       -1.1254000000     
    C    0.1348000000        0.6629000000       -0.6287000000     
    H    0.4733000000        0.8266000000       -1.6636000000     
    C   -0.1686000000        2.0324000000       -0.0106000000     
    H   -0.4296000000        1.9357000000        1.0423000000     
    H    0.7296000000        2.6547000000       -0.1044000000     
    H   -0.9948000000        2.5235000000       -0.5277000000     
    C    1.2732000000       -0.0194000000        0.1657000000     
    O    1.1138000000       -0.4071000000        1.3145000000     
    N    2.4420000000       -0.1731000000       -0.5284000000     
    H    2.5096000000        0.2245000000       -1.4543000000     
    C    3.6436000000       -0.7206000000        0.0782000000     
    H    3.3599000000       -1.1237000000        1.0513000000     
    H    4.0599000000       -1.5234000000       -0.5402000000     
    H    4.4111000000        0.0500000000        0.2222000000     

