%chk=structure_90.chk
%NProcShared=8
#SP MP2/aug-cc-pVDZ

Single Point calculation at MP2

0   1
    H   -3.9152000000       -1.6544000000        0.0768000000     
    C   -2.9996000000       -1.4135000000        0.6208000000     
    H   -2.4285000000       -2.3307000000        0.7982000000     
    H   -3.2865000000       -0.9927000000        1.5921000000     
    C   -2.2226000000       -0.3684000000       -0.1696000000     
    O   -2.7789000000        0.4776000000       -0.8552000000     
    N   -0.8506000000       -0.4778000000       -0.0775000000     
    H   -0.5258000000       -1.0632000000        0.6838000000     
    C    0.0587000000        0.6422000000       -0.4008000000     
    H    0.1182000000        0.7170000000       -1.4938000000     
    C   -0.3733000000        1.9945000000        0.1762000000     
    H   -0.3649000000        1.9514000000        1.2684000000     
    H    0.3356000000        2.7697000000       -0.1356000000     
    H   -1.3685000000        2.2579000000       -0.1816000000     
    C    1.4305000000        0.2490000000        0.1870000000     
    O    1.7279000000        0.4906000000        1.3509000000     
    N    2.2347000000       -0.4476000000       -0.6661000000     
    H    1.9051000000       -0.6125000000       -1.6065000000     
    C    3.5431000000       -0.9512000000       -0.2859000000     
    H    3.7121000000       -0.6658000000        0.7532000000     
    H    3.5864000000       -2.0435000000       -0.3709000000     
    H    4.3316000000       -0.5164000000       -0.9111000000     

