%chk=structure_75.chk
%NProcShared=8
#SP MP2/aug-cc-pVDZ

Single Point calculation at MP2

0   1
    H   -3.8262000000       -1.5961000000        0.0168000000     
    C   -2.7495000000       -1.7404000000        0.1328000000     
    H   -2.3959000000       -2.4399000000       -0.6321000000     
    H   -2.5801000000       -2.1874000000        1.1190000000     
    C   -2.0728000000       -0.3717000000        0.0884000000     
    O   -2.5623000000        0.5953000000        0.6503000000     
    N   -0.8997000000       -0.3562000000       -0.6313000000     
    H   -0.5752000000       -1.2569000000       -0.9553000000     
    C    0.0972000000        0.7218000000       -0.7480000000     
    H    0.4074000000        0.7257000000       -1.8050000000     
    C   -0.3990000000        2.1205000000       -0.3937000000     
    H   -0.6082000000        2.2052000000        0.6707000000     
    H    0.3874000000        2.8368000000       -0.6564000000     
    H   -1.3045000000        2.3662000000       -0.9516000000     
    C    1.3327000000        0.3374000000        0.1059000000     
    O    1.5377000000        0.7937000000        1.2200000000     
    N    2.1201000000       -0.6351000000       -0.4613000000     
    H    2.0176000000       -0.8096000000       -1.4519000000     
    C    3.3296000000       -1.1177000000        0.1870000000     
    H    3.2412000000       -0.8984000000        1.2516000000     
    H    3.4320000000       -2.1981000000        0.0433000000     
    H    4.2293000000       -0.6202000000       -0.1978000000     

