%chk=structure_255.chk
%NProcShared=8
#SP MP2/aug-cc-pVDZ

Single Point calculation at MP2

0   1
    H    3.4821000000       -1.5270000000       -0.7466000000     
    C    3.0872000000       -0.9842000000        0.1149000000     
    H    3.7821000000       -0.1840000000        0.3897000000     
    H    3.0207000000       -1.6883000000        0.9527000000     
    C    1.6902000000       -0.4837000000       -0.2204000000     
    O    0.9153000000       -1.1355000000       -0.9115000000     
    N    1.3741000000        0.7496000000        0.2871000000     
    H    2.0353000000        1.1441000000        0.9422000000     
    C    0.0033000000        1.2826000000        0.3846000000     
    H   -0.0396000000        1.8298000000        1.3303000000     
    C   -0.2823000000        2.2533000000       -0.7708000000     
    H   -0.1563000000        1.7625000000       -1.7418000000     
    H   -1.3005000000        2.6505000000       -0.7082000000     
    H    0.4215000000        3.0917000000       -0.7371000000     
    C   -1.0510000000        0.1583000000        0.5775000000     
    O   -1.2127000000       -0.3212000000        1.6927000000     
    N   -1.8227000000       -0.1701000000       -0.4996000000     
    H   -1.3781000000       -0.0359000000       -1.3980000000     
    C   -2.7044000000       -1.3259000000       -0.4051000000     
    H   -3.2635000000       -1.2664000000        0.5298000000     
    H   -3.4016000000       -1.3137000000       -1.2472000000     
    H   -2.1404000000       -2.2676000000       -0.4118000000     

