%chk=structure_180.chk
%NProcShared=8
#SP MP2/aug-cc-pVDZ

Single Point calculation at MP2

0   1
    H   -3.6236000000       -1.4642000000        0.3762000000     
    C   -3.0030000000       -1.0203000000       -0.4037000000     
    H   -3.6305000000       -0.4230000000       -1.0755000000     
    H   -2.5417000000       -1.8252000000       -0.9883000000     
    C   -1.9028000000       -0.1987000000        0.2452000000     
    O   -1.5896000000       -0.3139000000        1.4158000000     
    N   -1.3352000000        0.7831000000       -0.5805000000     
    H   -1.6631000000        0.6859000000       -1.5360000000     
    C    0.1100000000        1.0489000000       -0.5577000000     
    H    0.3932000000        1.3281000000       -1.5790000000     
    C    0.3965000000        2.2373000000        0.3832000000     
    H    0.1434000000        1.9589000000        1.4099000000     
    H    1.4413000000        2.5691000000        0.3508000000     
    H   -0.2287000000        3.0870000000        0.0943000000     
    C    0.9530000000       -0.2079000000       -0.1989000000     
    O    0.4807000000       -1.3346000000       -0.1610000000     
    N    2.3048000000        0.0126000000       -0.1706000000     
    H    2.6365000000        0.9593000000       -0.0578000000     
    C    3.2365000000       -1.0630000000        0.1344000000     
    H    3.3824000000       -1.1951000000        1.2145000000     
    H    2.8307000000       -1.9901000000       -0.2724000000     
    H    4.2024000000       -0.8504000000       -0.3328000000     

