%chk=structure_60.chk
%NProcShared=8
#SP MP2/aug-cc-pVDZ

Single Point calculation at MP2

0   1
    H   -3.0520000000       -2.1329000000        0.0674000000     
    C   -3.0449000000       -1.0434000000       -0.0166000000     
    H   -3.6781000000       -0.6476000000        0.7852000000     
    H   -3.4788000000       -0.7525000000       -0.9787000000     
    C   -1.6186000000       -0.5488000000        0.1914000000     
    O   -0.8939000000       -1.0152000000        1.0601000000     
    N   -1.2264000000        0.4550000000       -0.6571000000     
    H   -1.9168000000        0.8177000000       -1.3001000000     
    C    0.0432000000        1.1952000000       -0.5959000000     
    H    0.3119000000        1.4206000000       -1.6365000000     
    C   -0.1078000000        2.5031000000        0.1853000000     
    H   -0.3408000000        2.2909000000        1.2318000000     
    H    0.8237000000        3.0740000000        0.1576000000     
    H   -0.9104000000        3.1128000000       -0.2452000000     
    C    1.2106000000        0.3536000000       -0.0179000000     
    O    1.9047000000        0.7685000000        0.8959000000     
    N    1.4992000000       -0.7807000000       -0.7305000000     
    H    0.7387000000       -1.1551000000       -1.2831000000     
    C    2.4305000000       -1.7564000000       -0.1808000000     
    H    3.2927000000       -1.2227000000        0.2212000000     
    H    1.9751000000       -2.3413000000        0.6288000000     
    H    2.7609000000       -2.4297000000       -0.9769000000     

