%chk=structure_240.chk
%NProcShared=8
#SP MP2/aug-cc-pVDZ

Single Point calculation at MP2

0   1
    H   -3.7873000000       -0.9087000000        1.4028000000     
    C   -3.1681000000       -1.2645000000        0.5743000000     
    H   -3.8447000000       -1.5639000000       -0.2330000000     
    H   -2.5983000000       -2.1384000000        0.9042000000     
    C   -2.3005000000       -0.1107000000        0.0854000000     
    O   -2.7875000000        0.9748000000       -0.2101000000     
    N   -0.9616000000       -0.3918000000        0.0189000000     
    H   -0.6816000000       -1.3652000000        0.0316000000     
    C    0.0485000000        0.5029000000       -0.5566000000     
    H   -0.1144000000        0.5953000000       -1.6408000000     
    C    0.0118000000        1.9034000000        0.0659000000     
    H    0.1553000000        1.8572000000        1.1521000000     
    H    0.7879000000        2.5384000000       -0.3783000000     
    H   -0.9601000000        2.3586000000       -0.1212000000     
    C    1.3789000000       -0.2670000000       -0.3898000000     
    O    1.4798000000       -1.3980000000       -0.8615000000     
    N    2.3535000000        0.3199000000        0.3515000000     
    H    2.1993000000        1.2510000000        0.7067000000     
    C    3.6405000000       -0.3117000000        0.5901000000     
    H    3.6009000000       -1.3107000000        0.1548000000     
    H    4.4545000000        0.2536000000        0.1210000000     
    H    3.8390000000       -0.3922000000        1.6647000000     

