%chk=structure_195.chk
%NProcShared=8
#SP MP2/aug-cc-pVDZ

Single Point calculation at MP2

0   1
    H    4.0691000000       -1.0578000000        0.0079000000     
    C    3.1752000000       -0.8885000000       -0.5943000000     
    H    2.7621000000       -1.8606000000       -0.8897000000     
    H    3.4409000000       -0.3401000000       -1.5045000000     
    C    2.1453000000       -0.1486000000        0.2416000000     
    O    2.1709000000       -0.1325000000        1.4631000000     
    N    1.1874000000        0.5309000000       -0.4934000000     
    H    1.0876000000        0.2059000000       -1.4486000000     
    C   -0.0692000000        0.8851000000        0.1463000000     
    H    0.1573000000        0.9353000000        1.2175000000     
    C   -0.5594000000        2.2571000000       -0.3424000000     
    H   -0.8367000000        2.2313000000       -1.4026000000     
    H   -1.4273000000        2.6156000000        0.2230000000     
    H    0.2408000000        2.9914000000       -0.2152000000     
    C   -1.0821000000       -0.2713000000       -0.0610000000     
    O   -0.7178000000       -1.3689000000       -0.4671000000     
    N   -2.3889000000        0.0281000000        0.1955000000     
    H   -2.6084000000        0.9242000000        0.6042000000     
    C   -3.4413000000       -0.9734000000        0.1389000000     
    H   -3.0451000000       -1.8357000000       -0.3982000000     
    H   -3.7525000000       -1.2943000000        1.1412000000     
    H   -4.3136000000       -0.5808000000       -0.3944000000     

