%chk=structure_315.chk
%NProcShared=8
#SP MP2/aug-cc-pVDZ

Single Point calculation at MP2

0   1
    H    3.4738000000       -1.8319000000       -0.3543000000     
    C    3.2329000000       -0.7971000000       -0.6103000000     
    H    3.0955000000       -0.7172000000       -1.6936000000     
    H    4.0898000000       -0.1796000000       -0.3186000000     
    C    2.0146000000       -0.3661000000        0.1944000000     
    O    1.8953000000       -0.6104000000        1.3842000000     
    N    1.0477000000        0.3144000000       -0.5173000000     
    H    1.3101000000        0.6620000000       -1.4311000000     
    C   -0.0408000000        1.0153000000        0.1703000000     
    H    0.3075000000        1.2718000000        1.1743000000     
    C   -0.4337000000        2.2838000000       -0.5940000000     
    H   -0.7734000000        2.0488000000       -1.6099000000     
    H   -1.2538000000        2.7874000000       -0.0745000000     
    H    0.4128000000        2.9770000000       -0.6550000000     
    C   -1.2823000000        0.1287000000        0.4037000000     
    O   -1.9406000000        0.2292000000        1.4289000000     
    N   -1.6658000000       -0.6222000000       -0.6752000000     
    H   -0.9425000000       -0.8231000000       -1.3537000000     
    C   -2.7872000000       -1.5440000000       -0.5898000000     
    H   -3.5027000000       -1.1346000000        0.1248000000     
    H   -3.2646000000       -1.6399000000       -1.5699000000     
    H   -2.4831000000       -2.5403000000       -0.2418000000     

