%chk=structure_300.chk
%NProcShared=8
#SP MP2/aug-cc-pVDZ

Single Point calculation at MP2

0   1
    H    3.3309000000       -1.8700000000       -0.7065000000     
    C    3.2066000000       -0.7857000000       -0.7801000000     
    H    3.0707000000       -0.5149000000       -1.8322000000     
    H    4.1296000000       -0.3269000000       -0.4114000000     
    C    2.0543000000       -0.3652000000        0.1226000000     
    O    2.0187000000       -0.6514000000        1.3086000000     
    N    1.0522000000        0.3483000000       -0.4971000000     
    H    1.2337000000        0.6974000000       -1.4288000000     
    C   -0.0328000000        0.9747000000        0.2615000000     
    H    0.3368000000        1.1380000000        1.2769000000     
    C   -0.4405000000        2.3053000000       -0.3777000000     
    H   -0.7914000000        2.1706000000       -1.4082000000     
    H   -1.2561000000        2.7607000000        0.1916000000     
    H    0.4051000000        3.0020000000       -0.3845000000     
    C   -1.2490000000        0.0380000000        0.4489000000     
    O   -1.7174000000       -0.1840000000        1.5549000000     
    N   -1.8372000000       -0.3886000000       -0.7153000000     
    H   -1.2622000000       -0.3671000000       -1.5473000000     
    C   -2.9413000000       -1.3356000000       -0.6960000000     
    H   -3.5204000000       -1.1548000000        0.2104000000     
    H   -3.5774000000       -1.1799000000       -1.5727000000     
    H   -2.5984000000       -2.3790000000       -0.6837000000     

