%chk=structure_165.chk
%NProcShared=8
#SP MP2/aug-cc-pVDZ

Single Point calculation at MP2

0   1
    H   -4.1076000000       -0.7542000000        0.7511000000     
    C   -3.3671000000       -1.1412000000        0.0439000000     
    H   -3.8932000000       -1.3610000000       -0.8901000000     
    H   -2.9444000000       -2.0681000000        0.4434000000     
    C   -2.3292000000       -0.0603000000       -0.2217000000     
    O   -2.6308000000        1.0282000000       -0.7049000000     
    N   -1.0489000000       -0.3831000000        0.1100000000     
    H   -0.7946000000       -1.2891000000        0.4864000000     
    C    0.0587000000        0.5299000000       -0.0879000000     
    H   -0.0154000000        0.9545000000       -1.0978000000     
    C    0.0474000000        1.6882000000        0.9305000000     
    H    0.1449000000        1.3006000000        1.9500000000     
    H    0.8682000000        2.3908000000        0.7461000000     
    H   -0.8986000000        2.2266000000        0.8392000000     
    C    1.3460000000       -0.3028000000        0.0364000000     
    O    1.3410000000       -1.4219000000        0.5444000000     
    N    2.4699000000        0.3045000000       -0.4294000000     
    H    2.3819000000        1.2182000000       -0.8512000000     
    C    3.7887000000       -0.3006000000       -0.3491000000     
    H    3.6708000000       -1.2810000000        0.1136000000     
    H    4.2256000000       -0.4245000000       -1.3465000000     
    H    4.4663000000        0.3066000000        0.2625000000     

