--Link1--
%nproc=8
%mem=4096MB
%chk=IPolQout.vacu.chk
#MP2/cc-pvTZ density=MP2, maxdisk=16GB, pop=(minimal, MK), 5d, punch=mo

Generated by mdgx

0   1
    H    16.3563179   17.3919869   12.4620593
    C    16.7562304   16.5511778   13.0288133
    H    17.7884648   16.4700884   12.6882011
    H    16.2560574   15.6017298   12.8378280
    C    16.6785292   16.8878497   14.4654905
    O    16.2404232   18.0192240   14.7905302
    N    16.8745335   15.8972717   15.3585940
    H    17.2903062   15.0775340   14.9399496
    C    16.7388222   15.9587477   16.8324719
    H    16.7945775   14.9153927   17.1429583
    C    18.0063692   16.7047647   17.4056334
    H    17.9279030   17.7798591   17.2440312
    H    18.0229711   16.4338359   18.4612953
    H    18.9078820   16.3129141   16.9346466
    C    15.3565757   16.2443705   17.4151527
    O    15.2181481   16.7459765   18.5416316
    N    14.2705354   16.1524577   16.6089095
    H    14.5235263   15.8782133   15.6703545
    C    12.8441694   16.4612752   16.8869482
    H    12.3881368   16.6101250   15.9081847
    H    12.4061736   15.6438052   17.4596632
    H    12.7536995   17.3860564   17.4567686



