--Link1--
%nproc=8
%mem=4096MB
%chk=IPolQout.vacu.chk
#MP2/cc-pvTZ density=MP2, maxdisk=16GB, pop=(minimal, MK), 5d, punch=mo

Generated by mdgx

0   1
    H    16.8236464   16.7078476   12.2231654
    C    17.2333595   16.1473797   13.0634695
    H    18.3001146   16.3696008   13.0908806
    H    17.0977788   15.0829864   12.8716751
    C    16.6272593   16.6545145   14.3690910
    O    15.7472810   17.4693600   14.2782860
    N    17.0552987   16.0953108   15.5527791
    H    17.7684716   15.3894439   15.4377300
    C    16.4864131   16.3535468   16.8940768
    H    17.0181768   15.7138090   17.5983941
    C    16.9366143   17.7786311   17.3962946
    H    16.5118243   18.5754221   16.7857395
    H    16.7547673   17.9037899   18.4637060
    H    17.9837130   17.9872135   17.1767995
    C    14.9387569   16.0732046   17.0337864
    O    14.1676475   16.0034982   16.0686206
    N    14.4915154   15.8764058   18.2721327
    H    15.1866008   15.8833404   19.0048729
    C    13.0728028   15.9089777   18.6172502
    H    13.0078111   16.5316180   19.5095479
    H    12.4714844   16.3729435   17.8354236
    H    12.7308631   14.9059577   18.8724529



