%chk=structure_30.chk
NProcShared=8
# b3lyp/6-31G* Opt=(ModRedundant, maxcycles=1000, calcfc) geom=nocrowd

Phi Psi fixed scan

0   1
    H    2.5153000000        1.0000000000       -1.9230000000     
    C    2.5153000000        2.0900000000       -1.9230000000     
    H    1.6255000000        2.4539000000       -1.4093000000     
    H    2.5153000000        2.4539000000       -2.9505000000     
    C    3.7515000000        2.6408000000       -1.2093000000     
    O    4.5856000000        1.8774000000       -0.7277000000     
    N    3.8623000000        3.9697000000       -1.1453000000     
    H    3.1502000000        4.5562000000       -1.5565000000     
    C    4.9863000000        4.6139000000       -0.4964000000     
    H    5.0214000000        4.3155000000        0.5514000000     
    C    6.3021000000        4.2208000000       -1.1594000000     
    H    6.2857000000        4.5214000000       -2.2071000000     
    H    7.1283000000        4.7189000000       -0.6520000000     
    H    6.4342000000        3.1409000000       -1.0938000000     
    C    4.8645000000        6.1294000000       -0.5667000000     
    O    3.9015000000        6.6527000000       -1.1227000000     
    N    5.8460000000        6.8349000000        0.0000000000     
    H    6.6176000000        6.3592000000        0.4455000000     
    C    5.8461000000        8.2839000000        0.0000000000     
    H    5.3323000000        8.6477000000       -0.8898000000     
    C    5.1347000000        8.8329000000        1.2322000000     
    H    5.6431000000        8.4846000000        2.1312000000     
    H    5.1499000000        9.9224000000        1.2058000000     
    H    4.1019000000        8.4846000000        1.2414000000     
    C    7.2660000000        8.8318000000        0.0000000000     
    O    7.5178000000        9.9119000000        0.5295000000     
    N    8.1958000000        8.0825000000       -0.5969000000     
    H    7.9400000000        7.2011000000       -1.0185000000     
    C    9.5836000000        8.4938000000       -0.6638000000     
    H    9.6567000000        9.4425000000       -1.1954000000     
    C   10.1717000000        8.6708000000        0.7321000000     
    H   10.1140000000        7.7266000000        1.2737000000     
    H   11.2139000000        8.9796000000        0.6514000000     
    H    9.6082000000        9.4329000000        1.2704000000     
    C   10.4268000000        7.4597000000       -1.3960000000     
    O    9.9117000000        6.4362000000       -1.8403000000     
    N   11.7283000000        7.7297000000       -1.5211000000     
    H   12.1056000000        8.5850000000       -1.1388000000     
    C   12.6364000000        6.8252000000       -2.1970000000     
    H   12.0854000000        5.9542000000       -2.5517000000     
    H   13.0938000000        7.3352000000       -3.0449000000     
    H   13.4141000000        6.5050000000       -1.5037000000     

15 17 19 25 F
17 19 25 27 F
