--Link1--
%nproc=8
%mem=4096MB
%chk=IPolQout.vacu.chk
#MP2/cc-pvTZ density=MP2, maxdisk=16GB, pop=(minimal, MK), 5d, punch=mo

Generated by mdgx

0   1
    H    18.1298478   16.9176662   12.7030553
    C    18.3574820   16.1431207   13.4354226
    H    19.4409094   16.0286625   13.4698419
    H    17.9601712   15.1821692   13.1085948
    C    17.7372301   16.6797909   14.7368316
    O    16.9117893   17.6231557   14.7718070
    N    17.9512992   15.9416020   15.8294335
    H    18.4964107   15.0965726   15.7352058
    C    17.3654832   16.2886870   17.1400957
    H    16.2781051   16.2166830   17.1629937
    C    17.7420051   15.2511333   18.2245358
    H    18.7919052   15.1470527   18.4983544
    H    17.1824481   15.3233821   19.1571537
    H    17.3599346   14.2750806   17.9254653
    C    17.7440898   17.7137735   17.6480566
    O    17.0022280   18.2828935   18.4696068
    N    18.8707082   18.2623196   17.2182553
    H    19.4924792   17.6847031   16.6706604
    C    19.3006118   19.5736997   17.5712107
    H    20.2730153   19.4278754   18.0416012
    H    19.3374342   20.0898824   16.6118883
    H    18.8257376   20.0342470   18.4375194



