%chk=structure_15.chk
%NProcShared=8
#SP MP2/aug-cc-pVDZ

Single Point calculation at MP2

0   1
    H   -3.9873000000       -0.6758000000       -0.3618000000     
    C   -3.2873000000       -0.4168000000        0.4380000000     
    H   -3.3494000000       -1.2072000000        1.1926000000     
    H   -3.5975000000        0.5308000000        0.8888000000     
    C   -1.8791000000       -0.4055000000       -0.1401000000     
    O   -1.4358000000       -1.3997000000       -0.7195000000     
    N   -1.2009000000        0.7635000000        0.0103000000     
    H   -1.6687000000        1.4615000000        0.5720000000     
    C    0.1727000000        1.1494000000       -0.3781000000     
    H    0.1773000000        1.2657000000       -1.4723000000     
    C    0.4591000000        2.5206000000        0.2428000000     
    H    0.4274000000        2.4649000000        1.3376000000     
    H    1.4571000000        2.8446000000       -0.0504000000     
    H   -0.2751000000        3.2603000000       -0.0964000000     
    C    1.3783000000        0.2014000000       -0.1050000000     
    O    2.5055000000        0.6860000000       -0.1785000000     
    N    1.1467000000       -1.0943000000        0.2065000000     
    H    0.2419000000       -1.4796000000       -0.0637000000     
    C    2.2732000000       -2.0033000000        0.3591000000     
    H    3.0054000000       -1.5688000000        1.0436000000     
    H    1.9076000000       -2.9475000000        0.7703000000     
    H    2.7799000000       -2.1987000000       -0.5950000000     

