%chk=structure_0.chk
%NProcShared=8
#SP MP2/aug-cc-pVDZ

Single Point calculation at MP2

0   1
    H   -3.3517000000       -1.7375000000       -0.6059000000     
    C   -3.2634000000       -0.6887000000       -0.3071000000     
    H   -3.8985000000       -0.5473000000        0.5730000000     
    H   -3.6349000000       -0.0544000000       -1.1176000000     
    C   -1.8196000000       -0.4165000000        0.0914000000     
    O   -1.2757000000       -1.0855000000        0.9727000000     
    N   -1.2097000000        0.5940000000       -0.5834000000     
    H   -1.7689000000        1.0475000000       -1.2920000000     
    C    0.1286000000        1.1937000000       -0.4031000000     
    H    0.3389000000        1.6991000000       -1.3511000000     
    C    0.0887000000        2.2510000000        0.7166000000     
    H   -0.1654000000        1.7773000000        1.6706000000     
    H    1.0682000000        2.7252000000        0.8061000000     
    H   -0.6646000000        3.0154000000        0.4981000000     
    C    1.3810000000        0.2994000000       -0.2018000000     
    O    2.4642000000        0.8771000000       -0.1675000000     
    N    1.2500000000       -1.0502000000       -0.1906000000     
    H    0.3634000000       -1.4030000000        0.1658000000     
    C    2.4346000000       -1.8726000000        0.0135000000     
    H    3.2239000000       -1.5448000000       -0.6661000000     
    H    2.8203000000       -1.8003000000        1.0390000000     
    H    2.1802000000       -2.9138000000       -0.2004000000     

