%chk=structure_240.chk
%NProcShared=8
#SP MP2/aug-cc-pVDZ

Single Point calculation at MP2

0   1
    H    3.4677000000       -1.4394000000       -0.8934000000     
    C    3.0059000000       -1.0942000000        0.0341000000     
    H    3.7078000000       -0.4504000000        0.5737000000     
    H    2.7957000000       -1.9743000000        0.6534000000     
    C    1.6950000000       -0.4008000000       -0.2977000000     
    O    0.9739000000       -0.7646000000       -1.2205000000     
    N    1.3754000000        0.6724000000        0.4962000000     
    H    1.8997000000        0.7659000000        1.3556000000     
    C    0.0103000000        1.2194000000        0.5138000000     
    H   -0.0917000000        1.7385000000        1.4717000000     
    C   -0.1863000000        2.2311000000       -0.6226000000     
    H    0.0039000000        1.7672000000       -1.5955000000     
    H   -1.2010000000        2.6428000000       -0.6112000000     
    H    0.5221000000        3.0574000000       -0.5074000000     
    C   -1.0233000000        0.0641000000        0.6006000000     
    O   -1.0384000000       -0.6477000000        1.5978000000     
    N   -1.9253000000       -0.0489000000       -0.4150000000     
    H   -1.6368000000        0.3268000000       -1.3076000000     
    C   -2.8231000000       -1.1943000000       -0.4543000000     
    H   -3.2227000000       -1.3587000000        0.5474000000     
    H   -3.6447000000       -0.9848000000       -1.1447000000     
    H   -2.3052000000       -2.1082000000       -0.7728000000     

