%chk=structure_270.chk
%NProcShared=8
#SP MP2/aug-cc-pVDZ

Single Point calculation at MP2

0   1
    H    3.9327000000       -1.2255000000        0.3459000000     
    C    3.0089000000       -1.4448000000       -0.1996000000     
    H    2.5408000000       -2.3303000000        0.2419000000     
    H    3.2864000000       -1.6655000000       -1.2341000000     
    C    2.1298000000       -0.1967000000       -0.1910000000     
    O    2.4769000000        0.8225000000       -0.7739000000     
    N    0.9615000000       -0.3399000000        0.5109000000     
    H    0.8167000000       -1.2250000000        0.9788000000     
    C   -0.0869000000        0.6480000000        0.8135000000     
    H   -0.0941000000        0.8051000000        1.8992000000     
    C    0.0756000000        2.0097000000        0.1328000000     
    H    0.1505000000        1.9408000000       -0.9550000000     
    H   -0.7877000000        2.6310000000        0.3963000000     
    H    0.9856000000        2.5062000000        0.4712000000     
    C   -1.4318000000       -0.0646000000        0.5343000000     
    O   -1.9600000000       -0.7416000000        1.4113000000     
    N   -1.9220000000        0.0474000000       -0.7298000000     
    H   -1.4012000000        0.5911000000       -1.4021000000     
    C   -3.1207000000       -0.6437000000       -1.1717000000     
    H   -3.5625000000       -1.1233000000       -0.2973000000     
    H   -3.8416000000        0.0606000000       -1.6017000000     
    H   -2.8867000000       -1.4110000000       -1.9200000000     

