%chk=structure_270.chk
%NProcShared=8
#SP MP2/aug-cc-pVDZ

Single Point calculation at MP2

0   1
    H   -3.9799000000       -0.3734000000       -0.0679000000     
    C   -3.1635000000       -0.7855000000       -0.6717000000     
    H   -3.2669000000       -0.4134000000       -1.6959000000     
    H   -3.2695000000       -1.8731000000       -0.6700000000     
    C   -1.8377000000       -0.4218000000       -0.0212000000     
    O   -1.4508000000       -0.9778000000        1.0068000000     
    N   -1.1088000000        0.5407000000       -0.6566000000     
    H   -1.4786000000        0.9399000000       -1.5067000000     
    C    0.0619000000        1.2126000000       -0.0624000000     
    H    0.1840000000        2.1255000000       -0.6525000000     
    C   -0.1014000000        1.6237000000        1.4041000000     
    H   -0.2474000000        0.7755000000        2.0714000000     
    H    0.7890000000        2.1778000000        1.7188000000     
    H   -0.9688000000        2.2855000000        1.5048000000     
    C    1.3286000000        0.4019000000       -0.4247000000     
    O    1.9800000000        0.6670000000       -1.4278000000     
    N    1.6600000000       -0.5713000000        0.4724000000     
    H    0.9080000000       -0.8826000000        1.0798000000     
    C    2.7394000000       -1.5055000000        0.1942000000     
    H    3.5270000000       -0.9705000000       -0.3387000000     
    H    3.1362000000       -1.8966000000        1.1353000000     
    H    2.4119000000       -2.3472000000       -0.4311000000     

