%chk=structure_345.chk
%NProcShared=8
#SP MP2/aug-cc-pVDZ

Single Point calculation at MP2

0   1
    H   -3.5666000000       -1.6824000000        0.0720000000     
    C   -3.2282000000       -0.7915000000       -0.4605000000     
    H   -3.9627000000        0.0042000000       -0.2877000000     
    H   -3.1968000000       -0.9986000000       -1.5354000000     
    C   -1.8819000000       -0.3620000000        0.1065000000     
    O   -1.5730000000       -0.5630000000        1.2768000000     
    N   -1.0325000000        0.2348000000       -0.7899000000     
    H   -1.3889000000        0.3551000000       -1.7279000000     
    C    0.1160000000        1.0912000000       -0.4462000000     
    H    0.2911000000        1.7041000000       -1.3365000000     
    C   -0.1348000000        2.0446000000        0.7322000000     
    H   -0.3286000000        1.4910000000        1.6520000000     
    H    0.7526000000        2.6687000000        0.8636000000     
    H   -0.9949000000        2.6891000000        0.5216000000     
    C    1.4547000000        0.3434000000       -0.2581000000     
    O    2.5021000000        0.9810000000       -0.2818000000     
    N    1.3858000000       -1.0077000000       -0.1134000000     
    H    0.4824000000       -1.3953000000        0.1240000000     
    C    2.5691000000       -1.7931000000        0.1952000000     
    H    3.4387000000       -1.2479000000       -0.1739000000     
    H    2.6880000000       -1.9487000000        1.2755000000     
    H    2.5112000000       -2.7682000000       -0.2987000000     

