%chk=structure_105.chk
%NProcShared=8
#SP MP2/aug-cc-pVDZ

Single Point calculation at MP2

0   1
    H   -3.6152000000       -1.7953000000       -0.0326000000     
    C   -3.3230000000       -0.7532000000       -0.1725000000     
    H   -3.8127000000       -0.1541000000        0.6049000000     
    H   -3.6800000000       -0.4033000000       -1.1476000000     
    C   -1.8080000000       -0.6476000000       -0.0175000000     
    O   -1.1671000000       -1.4437000000        0.6456000000     
    N   -1.2469000000        0.3960000000       -0.7285000000     
    H   -1.9196000000        1.0109000000       -1.1705000000     
    C    0.0383000000        1.0723000000       -0.4843000000     
    H    0.4013000000        1.3953000000       -1.4686000000     
    C   -0.1505000000        2.3081000000        0.4062000000     
    H   -0.4306000000        1.9929000000        1.4143000000     
    H    0.7807000000        2.8811000000        0.4735000000     
    H   -0.9278000000        2.9650000000       -0.0020000000     
    C    1.1303000000        0.1756000000        0.1556000000     
    O    1.2279000000        0.0269000000        1.3619000000     
    N    2.1077000000       -0.2188000000       -0.7224000000     
    H    1.8709000000       -0.2347000000       -1.7057000000     
    C    3.1846000000       -1.0944000000       -0.2843000000     
    H    3.4634000000       -0.8051000000        0.7299000000     
    H    2.8832000000       -2.1500000000       -0.2696000000     
    H    4.0447000000       -0.9738000000       -0.9491000000     

