%chk=structure_150.chk
NProcShared=8
#P b3lyp/6-31G* Opt=(AddRedundant, Tight, MaxCycles=1000) Freq SCF(Conver=6)  geom=nocrowd

Phi Psi fixed scan

0   1
    H    9.6921000000        1.0000000000       -0.0000000000     
    C    9.6921000000        2.0900000000       -0.0000000000     
    H   10.2058000000        2.4538000000       -0.8898000000     
    H   10.2058000000        2.4538000000        0.8898000000     
    C    8.2647000000        2.6408000000       -0.0000000000     
    O    7.3015000000        1.8774000000       -0.0000000000     
    N    8.1367000000        3.9696000000       -0.0000000000     
    H    8.9590000000        4.5561000000       -0.0000000000     
    C    6.8388000000        4.6139000000       -0.0000000000     
    H    6.2845000000        4.3155000000       -0.8898000000     
    C    6.0308000000        4.2208000000        1.2321000000     
    H    6.5688000000        4.5213000000        2.1312000000     
    H    5.0616000000        4.7189000000        1.2058000000     
    H    5.8836000000        3.1409000000        1.2414000000     
    C    6.9794000000        6.1294000000       -0.0000000000     
    O    8.0915000000        6.6527000000       -0.0000000000     
    N    5.8460000000        6.8349000000        0.0000000000     
    H    4.9551000000        6.3592000000        0.0000000000     
    C    5.8461000000        8.2839000000        0.0000000000     
    H    5.3323000000        8.6477000000       -0.8898000000     
    C    5.1347000000        8.8329000000        1.2322000000     
    H    5.6431000000        8.4846000000        2.1312000000     
    H    5.1499000000        9.9224000000        1.2058000000     
    H    4.1019000000        8.4846000000        1.2414000000     
    C    7.2660000000        8.8318000000        0.0000000000     
    O    8.1781000000        8.2008000000        0.5295000000     
    N    7.4515000000       10.0115000000       -0.5968000000     
    H    6.6700000000       10.4926000000       -1.0184000000     
    C    8.7559000000       10.6390000000       -0.6638000000     
    H    9.1270000000       10.8154000000        0.3458000000     
    C    9.7540000000        9.7533000000       -1.4020000000     
    H    9.4006000000        9.5752000000       -2.4177000000     
    H   10.7240000000       10.2493000000       -1.4371000000     
    H    9.8517000000        8.8016000000       -0.8798000000     
    C    8.6859000000       11.9714000000       -1.3960000000     
    O    7.6167000000       12.3837000000       -1.8403000000     
    N    9.8314000000       12.6456000000       -1.5211000000     
    H   10.6854000000       12.2655000000       -1.1388000000     
    C    9.8966000000       13.9257000000       -2.1970000000     
    H    8.9033000000       14.2009000000       -2.5517000000     
    H   10.2576000000       14.6853000000       -1.5037000000     
    H   10.5779000000       13.8551000000       -3.0449000000     

15 17 19 25 F
17 19 25 27 F
