%chk=structure_270.chk
%NProcShared=8
#SP MP2/aug-cc-pVDZ

Single Point calculation at MP2

0   1
    H    4.0830000000       -0.7355000000       -0.9410000000     
    C    3.0749000000       -1.1493000000       -0.8571000000     
    H    3.1559000000       -2.1145000000       -0.3452000000     
    H    2.6697000000       -1.3185000000       -1.8601000000     
    C    2.2304000000       -0.2131000000       -0.0053000000     
    O    2.6448000000        0.2694000000        1.0388000000     
    N    0.9752000000        0.0520000000       -0.4991000000     
    H    0.6647000000       -0.4437000000       -1.3235000000     
    C   -0.0267000000        0.7790000000        0.2785000000     
    H    0.4078000000        0.8921000000        1.2738000000     
    C   -0.3056000000        2.1676000000       -0.3127000000     
    H   -0.6128000000        2.1198000000       -1.3660000000     
    H   -1.0842000000        2.6907000000        0.2543000000     
    H    0.6088000000        2.7668000000       -0.2731000000     
    C   -1.2576000000       -0.1338000000        0.4663000000     
    O   -1.3167000000       -0.9390000000        1.3846000000     
    N   -2.2190000000       -0.0403000000       -0.5065000000     
    H   -2.1816000000        0.7386000000       -1.1477000000     
    C   -3.4442000000       -0.8217000000       -0.4554000000     
    H   -3.2778000000       -1.6465000000        0.2383000000     
    H   -4.2939000000       -0.2267000000       -0.0964000000     
    H   -3.6851000000       -1.2195000000       -1.4468000000     

