%chk=structure_45.chk
%NProcShared=8
#SP MP2/aug-cc-pVDZ

Single Point calculation at MP2

0   1
    H   -3.6920000000       -0.6761000000        1.0428000000     
    C   -3.2874000000       -0.6979000000        0.0257000000     
    H   -3.7827000000        0.0777000000       -0.5667000000     
    H   -3.5249000000       -1.6780000000       -0.3975000000     
    C   -1.7717000000       -0.5586000000        0.1078000000     
    O   -1.0957000000       -1.4218000000        0.6644000000     
    N   -1.2691000000        0.5640000000       -0.4807000000     
    H   -1.9581000000        1.1734000000       -0.9003000000     
    C    0.0824000000        1.1621000000       -0.4921000000     
    H    0.3031000000        1.3738000000       -1.5486000000     
    C    0.0465000000        2.4904000000        0.2739000000     
    H   -0.1494000000        2.3139000000        1.3357000000     
    H    1.0056000000        3.0024000000        0.1854000000     
    H   -0.7424000000        3.1395000000       -0.1250000000     
    C    1.3028000000        0.3154000000       -0.0304000000     
    O    2.2234000000        0.8839000000        0.5440000000     
    N    1.3926000000       -0.9655000000       -0.4948000000     
    H    0.5087000000       -1.4666000000       -0.4821000000     
    C    2.5557000000       -1.7562000000       -0.1070000000     
    H    3.4647000000       -1.2012000000       -0.3460000000     
    H    2.5668000000       -1.9827000000        0.9672000000     
    H    2.5448000000       -2.6923000000       -0.6713000000     

