%chk=structure_225.chk
%NProcShared=8
#SP MP2/aug-cc-pVDZ

Single Point calculation at MP2

0   1
    H    3.5690000000       -1.4638000000       -0.7335000000     
    C    3.1824000000       -0.8098000000        0.0498000000     
    H    3.8648000000        0.0359000000        0.1901000000     
    H    3.1438000000       -1.3787000000        0.9867000000     
    C    1.7747000000       -0.3728000000       -0.3222000000     
    O    1.0646000000       -1.0115000000       -1.0828000000     
    N    1.3758000000        0.8356000000        0.2213000000     
    H    2.0134000000        1.2056000000        0.9156000000     
    C   -0.0326000000        1.1654000000        0.4964000000     
    H   -0.0833000000        1.4814000000        1.5452000000     
    C   -0.4830000000        2.3357000000       -0.3904000000     
    H   -0.4431000000        2.0582000000       -1.4500000000     
    H   -1.4964000000        2.6663000000       -0.1372000000     
    H    0.1912000000        3.1873000000       -0.2534000000     
    C   -0.9315000000       -0.0995000000        0.4622000000     
    O   -0.6707000000       -1.0472000000        1.1901000000     
    N   -2.1134000000        0.0072000000       -0.2146000000     
    H   -2.1626000000        0.6782000000       -0.9677000000     
    C   -2.9957000000       -1.1480000000       -0.3043000000     
    H   -3.0762000000       -1.6019000000        0.6847000000     
    H   -3.9839000000       -0.8186000000       -0.6365000000     
    H   -2.6112000000       -1.9065000000       -0.9980000000     

