--Link1--
%nproc=8
%mem=4096MB
%chk=IPolQout.vacu.chk
#MP2/cc-pvTZ density=MP2, maxdisk=16GB, pop=(minimal, MK), 5d, punch=mo

Generated by mdgx

0   1
    H    16.6357437   17.4250196   12.4511404
    C    17.0112003   16.5861618   13.0371874
    H    18.0725049   16.4862499   12.8097003
    H    16.4097786   15.7094842   12.7967123
    C    16.7849071   16.9035551   14.4668944
    O    16.4281557   18.0387124   14.8078905
    N    16.8259956   15.8715527   15.3402358
    H    17.4772296   15.1449948   15.0792608
    C    16.3675365   16.0315498   16.7094447
    H    16.4229605   15.0569797   17.1944615
    C    17.3951626   16.8542387   17.5021949
    H    18.4007228   16.4750477   17.3200880
    H    17.3503057   17.8621992   17.0897587
    H    17.3686894   16.8679366   18.5917874
    C    14.9699405   16.5487339   16.9190840
    O    14.6691595   17.1743750   17.9297191
    N    14.1147843   16.2735789   15.8916269
    H    14.4859646   16.0650627   14.9757414
    C    12.7567035   16.8134856   15.7396749
    H    12.2963181   17.1748556   16.6592166
    H    12.8407600   17.7133604   15.1303639
    H    12.1611912   16.0403472   15.2541627



