%chk=structure_135.chk
%NProcShared=8
#SP MP2/aug-cc-pVDZ

Single Point calculation at MP2

0   1
    H   -3.5449000000        0.0385000000        1.0805000000     
    C   -3.3953000000       -0.4280000000        0.0990000000     
    H   -3.8926000000        0.1979000000       -0.6514000000     
    H   -3.8591000000       -1.4154000000        0.1093000000     
    C   -1.9027000000       -0.5927000000       -0.1748000000     
    O   -1.3326000000       -1.6593000000       -0.0484000000     
    N   -1.2958000000        0.5640000000       -0.6522000000     
    H   -1.9339000000        1.3513000000       -0.6850000000     
    C    0.0810000000        1.0363000000       -0.4432000000     
    H    0.4503000000        1.3965000000       -1.4141000000     
    C    0.0914000000        2.2151000000        0.5465000000     
    H   -0.2211000000        1.8666000000        1.5349000000     
    H    1.0974000000        2.6403000000        0.6266000000     
    H   -0.5863000000        3.0102000000        0.2116000000     
    C    1.0731000000       -0.0131000000        0.1027000000     
    O    0.9038000000       -0.5774000000        1.1707000000     
    N    2.2815000000       -0.0113000000       -0.5494000000     
    H    2.2973000000        0.2962000000       -1.5124000000     
    C    3.3570000000       -0.8893000000       -0.1132000000     
    H    3.3242000000       -0.9487000000        0.9756000000     
    H    3.2550000000       -1.9057000000       -0.5152000000     
    H    4.3175000000       -0.4724000000       -0.4295000000     

