%chk=structure_270.chk
%NProcShared=8
# b3lyp/6-31G* Opt=(ModRedundant, maxcycles=1000, calcfc) geom=nocrowd

Phi Psi fixed scan

0   1
    H    0.3668000000        4.2900000000        0.9842000000     
    C    1.1769000000        3.7481000000        0.4960000000     
    H    0.9253000000        3.5840000000       -0.5518000000     
    H    1.3209000000        2.7870000000        0.9895000000     
    C    2.4871000000        4.5351000000        0.5667000000     
    O    2.5276000000        5.6304000000        1.1227000000     
    N    3.5554000000        3.9697000000       -0.0000000000     
    H    3.4723000000        3.0670000000       -0.4455000000     
    C    4.8533000000        4.6139000000       -0.0000000000     
    H    5.4076000000        4.3155000000        0.8898000000     
    C    5.6613000000        4.2208000000       -1.2322000000     
    H    5.1233000000        4.5214000000       -2.1312000000     
    H    6.6305000000        4.7189000000       -1.2058000000     
    H    5.8085000000        3.1409000000       -1.2414000000     
    C    4.7127000000        6.1294000000        0.0000000000     
    O    4.6551000000        6.7505000000        1.0590000000     
    N    4.6575000000        6.7246000000       -1.1937000000     
    H    4.7088000000        6.1710000000       -2.0369000000     
    C    4.5242000000        8.1613000000       -1.3275000000     
    H    4.4820000000        8.6165000000       -0.3381000000     
    H    5.3811000000        8.5570000000       -1.8727000000     
    H    3.6091000000        8.3926000000       -1.8727000000     

5 7 9 15 F
7 9 15 17 F
