%chk=structure_75.chk
%NProcShared=8
# b3lyp/6-31G* Opt=(ModRedundant, maxcycles=1000, calcfc) geom=nocrowd

Phi Psi fixed scan

0   1
    H    0.3668000000        4.2900000000        0.9842000000     
    C    1.1769000000        3.7481000000        0.4960000000     
    H    0.9253000000        3.5840000000       -0.5518000000     
    H    1.3209000000        2.7870000000        0.9895000000     
    C    2.4871000000        4.5351000000        0.5667000000     
    O    2.5276000000        5.6304000000        1.1227000000     
    N    3.5554000000        3.9697000000       -0.0000000000     
    H    3.4723000000        3.0670000000       -0.4455000000     
    C    4.8533000000        4.6139000000       -0.0000000000     
    H    5.4076000000        4.3155000000        0.8898000000     
    C    5.6613000000        4.2208000000       -1.2322000000     
    H    5.1233000000        4.5214000000       -2.1312000000     
    H    6.6305000000        4.7189000000       -1.2058000000     
    H    5.8085000000        3.1409000000       -1.2414000000     
    C    4.7127000000        6.1294000000        0.0000000000     
    O    4.9280000000        6.7758000000       -1.0229000000     
    N    4.3498000000        6.6961000000        1.1530000000     
    H    4.1839000000        6.1223000000        1.9675000000     
    C    4.1821000000        8.1295000000        1.2823000000     
    H    4.3948000000        8.6084000000        0.3266000000     
    H    3.1567000000        8.3506000000        1.5786000000     
    H    4.8683000000        8.5094000000        2.0392000000     

5 7 9 15 F
7 9 15 17 F
