%chk=structure_30.chk
NProcShared=8
#P b3lyp/6-31G* Opt=(AddRedundant, Tight, MaxCycles=1000) Freq SCF(Conver=6)  geom=nocrowd

Phi Psi fixed scan

0   1
    H    7.7691000000        1.0000000000       -3.3308000000     
    C    7.7691000000        2.0900000000       -3.3308000000     
    H    7.2553000000        2.4539000000       -4.2206000000     
    H    8.7965000000        2.4539000000       -3.3308000000     
    C    7.0554000000        2.6408000000       -2.0946000000     
    O    6.5738000000        1.8774000000       -1.2605000000     
    N    6.9914000000        3.9697000000       -1.9838000000     
    H    7.4025000000        4.5562000000       -2.6959000000     
    C    6.3425000000        4.6139000000       -0.8598000000     
    H    5.2947000000        4.3155000000       -0.8246000000     
    C    7.0055000000        4.2208000000        0.4561000000     
    H    8.0531000000        4.5213000000        0.4396000000     
    H    6.4981000000        4.7189000000        1.2822000000     
    H    6.9399000000        3.1409000000        0.5882000000     
    C    6.4127000000        6.1294000000       -0.9815000000     
    O    6.9688000000        6.6527000000       -1.9446000000     
    N    5.8460000000        6.8349000000        0.0000000000     
    H    5.4006000000        6.3592000000        0.7716000000     
    C    5.8461000000        8.2839000000        0.0000000000     
    H    5.3323000000        8.6477000000       -0.8898000000     
    C    5.1347000000        8.8329000000        1.2322000000     
    H    5.6431000000        8.4846000000        2.1312000000     
    H    5.1499000000        9.9224000000        1.2058000000     
    H    4.1019000000        8.4846000000        1.2414000000     
    C    7.2660000000        8.8318000000        0.0000000000     
    O    7.5178000000        9.9119000000        0.5295000000     
    N    8.1958000000        8.0825000000       -0.5969000000     
    H    7.9400000000        7.2011000000       -1.0185000000     
    C    9.5836000000        8.4938000000       -0.6638000000     
    H    9.6567000000        9.4425000000       -1.1954000000     
    C   10.1717000000        8.6708000000        0.7321000000     
    H   10.1140000000        7.7266000000        1.2737000000     
    H   11.2139000000        8.9796000000        0.6514000000     
    H    9.6082000000        9.4329000000        1.2704000000     
    C   10.4268000000        7.4597000000       -1.3960000000     
    O    9.9117000000        6.4362000000       -1.8403000000     
    N   11.7283000000        7.7297000000       -1.5211000000     
    H   12.1056000000        8.5850000000       -1.1388000000     
    C   12.6364000000        6.8252000000       -2.1970000000     
    H   12.0854000000        5.9542000000       -2.5517000000     
    H   13.0938000000        7.3352000000       -3.0449000000     
    H   13.4141000000        6.5050000000       -1.5037000000     

15 17 19 25 F
17 19 25 27 F
