%chk=structure_30.chk
%NProcShared=8
#SP MP2/aug-cc-pVDZ 

Phi Psi fixed scan

0   1
    H   -6.7663000000       -0.8514000000       -0.6821000000     
    C   -5.8589000000       -1.4415000000       -0.8421000000     
    H   -5.5357000000       -1.3284000000       -1.8814000000     
    H   -6.1167000000       -2.4902000000       -0.6628000000     
    C   -4.8105000000       -1.0127000000        0.1739000000     
    O   -5.0246000000       -1.0378000000        1.3830000000     
    N   -3.6171000000       -0.6112000000       -0.3471000000     
    H   -3.4741000000       -0.4956000000       -1.3436000000     
    C   -2.5498000000       -0.1041000000        0.4915000000     
    H   -2.9971000000        0.5259000000        1.2719000000     
    C   -1.7603000000       -1.2376000000        1.1777000000     
    H   -1.2494000000       -1.8626000000        0.4381000000     
    H   -1.0083000000       -0.8416000000        1.8695000000     
    H   -2.4602000000       -1.8525000000        1.7486000000     
    C   -1.6423000000        0.7521000000       -0.4061000000     
    O   -1.7426000000        0.7384000000       -1.6300000000     
    N   -0.6989000000        1.4850000000        0.2549000000     
    H   -0.7325000000        1.5133000000        1.2660000000     
    C    0.2372000000        2.3812000000       -0.4201000000     
    H    0.0418000000        2.2408000000       -1.4889000000     
    C    0.0010000000        3.8456000000       -0.0431000000     
    H    0.1002000000        3.9954000000        1.0387000000     
    H    0.7447000000        4.4775000000       -0.5325000000     
    H   -1.0023000000        4.1569000000       -0.3485000000     
    C    1.7101000000        1.9772000000       -0.1769000000     
    O    2.6163000000        2.8057000000       -0.2141000000     
    N    1.9236000000        0.6522000000        0.0145000000     
    H    1.1601000000       -0.0146000000        0.0097000000     
    C    3.2513000000        0.0813000000        0.1262000000     
    H    3.8901000000        0.5338000000       -0.6435000000     
    C    3.8844000000        0.3471000000        1.5065000000     
    H    3.2801000000       -0.1099000000        2.2971000000     
    H    4.8989000000       -0.0633000000        1.5645000000     
    H    3.9358000000        1.4260000000        1.6710000000     
    C    3.1008000000       -1.4279000000       -0.1322000000     
    O    2.0115000000       -1.9881000000       -0.0297000000     
    N    4.2541000000       -2.0757000000       -0.4422000000     
    H    5.0990000000       -1.5308000000       -0.5413000000     
    C    4.3204000000       -3.5098000000       -0.6720000000     
    H    3.3203000000       -3.9135000000       -0.5118000000     
    H    4.6356000000       -3.7303000000       -1.6983000000     
    H    5.0186000000       -3.9872000000        0.0249000000     

15 17 19 25  F
17 19 25 27  F
