%chk=structure_330.chk
%NProcShared=8
#SP MP2/aug-cc-pVDZ 

Phi Psi fixed scan

0   1
    H   -7.0546000000       -0.3525000000        0.2519000000     
    C   -6.3439000000       -0.7649000000       -0.4706000000     
    H   -6.2896000000       -0.1017000000       -1.3393000000     
    H   -6.7320000000       -1.7374000000       -0.7903000000     
    C   -5.0058000000       -0.9734000000        0.2233000000     
    O   -4.8975000000       -1.6468000000        1.2446000000     
    N   -3.9374000000       -0.3697000000       -0.3688000000     
    H   -4.0354000000        0.2343000000       -1.1761000000     
    C   -2.6050000000       -0.4373000000        0.1977000000     
    H   -2.6978000000       -0.3711000000        1.2892000000     
    C   -1.8887000000       -1.7581000000       -0.1523000000     
    H   -1.7933000000       -1.8602000000       -1.2383000000     
    H   -0.8872000000       -1.8049000000        0.2893000000     
    H   -2.4824000000       -2.5907000000        0.2334000000     
    C   -1.8244000000        0.7697000000       -0.3429000000     
    O   -2.1797000000        1.3675000000       -1.3532000000     
    N   -0.6817000000        1.0697000000        0.3488000000     
    H   -0.5976000000        0.6714000000        1.2766000000     
    C    0.1448000000        2.2359000000        0.0391000000     
    H   -0.3040000000        2.6939000000       -0.8445000000     
    C    0.1631000000        3.2489000000        1.1930000000     
    H    0.5716000000        2.7994000000        2.1066000000     
    H    0.7927000000        4.1016000000        0.9234000000     
    H   -0.8494000000        3.6086000000        1.4015000000     
    C    1.5879000000        1.8725000000       -0.3578000000     
    O    2.2589000000        2.6388000000       -1.0416000000     
    N    2.0888000000        0.7376000000        0.2043000000     
    H    1.4572000000        0.0163000000        0.5391000000     
    C    3.4011000000        0.2302000000       -0.1537000000     
    H    3.5895000000        0.4588000000       -1.2116000000     
    C    4.5094000000        0.8862000000        0.6899000000     
    H    4.3656000000        0.6670000000        1.7528000000     
    H    5.5053000000        0.5369000000        0.3943000000     
    H    4.4690000000        1.9683000000        0.5408000000     
    C    3.3443000000       -1.2984000000        0.0351000000     
    O    2.3750000000       -1.8432000000        0.5624000000     
    N    4.4324000000       -1.9771000000       -0.4095000000     
    H    5.1725000000       -1.4568000000       -0.8590000000     
    C    4.5633000000       -3.4217000000       -0.3069000000     
    H    3.6762000000       -3.7960000000        0.2047000000     
    H    4.6263000000       -3.8830000000       -1.2990000000     
    H    5.4544000000       -3.6945000000        0.2695000000     

15 17 19 25  F
17 19 25 27  F
