%chk=structure_0.chk
%NProcShared=8
#SP MP2/aug-cc-pVDZ 

Phi Psi fixed scan

0   1
    H   -6.5975000000       -1.9174000000       -0.6179000000     
    C   -6.2023000000       -0.9009000000       -0.5261000000     
    H   -6.9397000000       -0.3142000000        0.0305000000     
    H   -6.0858000000       -0.4725000000       -1.5263000000     
    C   -4.9086000000       -0.9477000000        0.2736000000     
    O   -4.8645000000       -1.3895000000        1.4184000000     
    N   -3.8053000000       -0.4678000000       -0.3662000000     
    H   -3.8487000000       -0.0698000000       -1.2963000000     
    C   -2.5055000000       -0.4147000000        0.2752000000     
    H   -2.6642000000       -0.1646000000        1.3312000000     
    C   -1.7641000000       -1.7649000000        0.1933000000     
    H   -1.6157000000       -2.0507000000       -0.8531000000     
    H   -0.7838000000       -1.7249000000        0.6806000000     
    H   -2.3709000000       -2.5276000000        0.6883000000     
    C   -1.7043000000        0.6906000000       -0.4260000000     
    O   -1.9438000000        1.0198000000       -1.5835000000     
    N   -0.6834000000        1.2254000000        0.3116000000     
    H   -0.6689000000        1.0255000000        1.3043000000     
    C    0.1527000000        2.3218000000       -0.1718000000     
    H   -0.1793000000        2.5079000000       -1.1976000000     
    C   -0.0338000000        3.5971000000        0.6599000000     
    H    0.2124000000        3.4202000000        1.7147000000     
    H    0.6332000000        4.3758000000        0.2834000000     
    H   -1.0693000000        3.9451000000        0.5986000000     
    C    1.6504000000        1.9620000000       -0.2616000000     
    O    2.4694000000        2.8011000000       -0.6277000000     
    N    1.9858000000        0.7027000000        0.1120000000     
    H    1.2704000000        0.0022000000        0.2726000000     
    C    3.3352000000        0.1884000000       -0.0151000000     
    H    3.7561000000        0.5377000000       -0.9675000000     
    C    4.2446000000        0.6773000000        1.1287000000     
    H    3.8660000000        0.3275000000        2.0947000000     
    H    5.2718000000        0.3155000000        1.0065000000     
    H    4.2602000000        1.7699000000        1.1240000000     
    C    3.2178000000       -1.3467000000       -0.0297000000     
    O    2.1812000000       -1.9138000000        0.3117000000     
    N    4.3387000000       -2.0059000000       -0.4208000000     
    H    5.1388000000       -1.4619000000       -0.7118000000     
    C    4.4330000000       -3.4563000000       -0.4609000000     
    H    3.4741000000       -3.8563000000       -0.1302000000     
    H    4.6373000000       -3.8084000000       -1.4783000000     
    H    5.2238000000       -3.8181000000        0.2062000000     

15 17 19 25  F
17 19 25 27  F
