%chk=structure_150.chk
%NProcShared=8
#SP MP2/aug-cc-pVDZ 

Phi Psi fixed scan

0   1
    H   -7.3269000000       -0.7515000000       -1.5986000000     
    C   -6.7704000000        0.1310000000       -1.2677000000     
    H   -7.4825000000        0.7972000000       -0.7708000000     
    H   -6.3565000000        0.6398000000       -2.1438000000     
    C   -5.7176000000       -0.3018000000       -0.2571000000     
    O   -6.0155000000       -0.8702000000        0.7902000000     
    N   -4.4291000000       -0.0213000000       -0.5962000000     
    H   -4.1895000000        0.5033000000       -1.4294000000     
    C   -3.3164000000       -0.3144000000        0.2857000000     
    H   -3.6122000000       -0.0646000000        1.3120000000     
    C   -2.9163000000       -1.8034000000        0.2411000000     
    H   -2.6174000000       -2.0868000000       -0.7737000000     
    H   -2.0837000000       -2.0158000000        0.9214000000     
    H   -3.7763000000       -2.4066000000        0.5419000000     
    C   -2.1481000000        0.5809000000       -0.1527000000     
    O   -2.1282000000        1.1200000000       -1.2581000000     
    N   -1.1574000000        0.7241000000        0.7695000000     
    H   -1.1476000000        0.1107000000        1.5782000000     
    C    0.1497000000        1.2699000000        0.4324000000     
    H    0.1342000000        1.4865000000       -0.6396000000     
    C    0.4491000000        2.5584000000        1.2173000000     
    H    0.4468000000        2.3603000000        2.2945000000     
    H    1.4292000000        2.9640000000        0.9430000000     
    H   -0.3144000000        3.3105000000        0.9984000000     
    C    1.1951000000        0.1883000000        0.7547000000     
    O    1.0146000000       -0.6089000000        1.6770000000     
    N    2.3097000000        0.1984000000       -0.0105000000     
    H    2.4572000000        0.8835000000       -0.7452000000     
    C    3.4395000000       -0.6794000000        0.2389000000     
    H    3.5972000000       -0.7366000000        1.3231000000     
    C    3.1923000000       -2.1016000000       -0.3004000000     
    H    3.0420000000       -2.0780000000       -1.3845000000     
    H    4.0377000000       -2.7634000000       -0.0810000000     
    H    2.2984000000       -2.5123000000        0.1754000000     
    C    4.6578000000       -0.0254000000       -0.4369000000     
    O    4.5193000000        0.8542000000       -1.2839000000     
    N    5.8640000000       -0.5117000000       -0.0453000000     
    H    5.8863000000       -1.2194000000        0.6754000000     
    C    7.1236000000       -0.0552000000       -0.6109000000     
    H    6.8908000000        0.7040000000       -1.3581000000     
    H    7.7638000000        0.3853000000        0.1616000000     
    H    7.6615000000       -0.8806000000       -1.0910000000     

15 17 19 25  F
17 19 25 27  F
